LAMMPS (16 Mar 2018)
# Fin dminimud floating point parameter in input script or data file (../fix_nh.cpp:132)energy for Beryl

#----- Initialize Simulation -----
clear
units 		metal
boundary 	p p p
atom_style 	full
bond_style	none
variable	etol equal 1e-25
variable 	ftol equal 1e-25
variable 	maxiter equal 5000
variable 	maxeval equal 10000
variable	probeTemp equal 1800

#----- Create Atoms -----
read_data 	beryl_water_025.mod
  triclinic box = (0 0 0) to (9.208 7.97436 18.376) with tilt (-4.604 0 0)
  1 by 1 by 1 MPI processor grid
  reading atoms ...
  119 atoms
  scanning bonds ...
  2 = max bonds/atom
  scanning angles ...
  1 = max angles/atom
  reading bonds ...
  2 bonds
  reading angles ...
  1 angles
  2 = max # of 1-2 neighbors
  1 = max # of 1-3 neighbors
  1 = max # of 1-4 neighbors
  2 = max # of special neighbors
replicate 	8 8 2
  triclinic box = (0 0 0) to (73.664 63.7949 36.752) with tilt (-36.832 0 0)
  1 by 1 by 1 MPI processor grid
  15232 atoms
  256 bonds
  128 angles
  2 = max # of 1-2 neighbors
  1 = max # of 1-3 neighbors
  1 = max # of 1-4 neighbors
  2 = max # of special neighbors
  Time spent = 0.014395 secs

#----- Define Interatomic Potential -----
include 	potential_main.mod
kspace_style 	pppm 1.0e-4

# Neighbor Style
neighbor	0.3 bin
neigh_modify	delay 0 every 1 check yes

# Minimization style
min_style	cg

# Setup Output
thermo		10
thermo_style	custom	step temp vol cella cellb cellc cellgamma pxx pyy pzz pxy pxz pyz lx ly lz press pe #c_eatoms
thermo_modify	norm no
variable 	myVol equal vol
variable	myCella equal cella
variable	myCellb equal cellb
variable	myCellc equal cellc
variable	myCellgamma equal cellgamma
include 	potential_beryl.mod
# Potential Paramters
pair_style 	hybrid/overlay morse 5.5 buck 5.5 lj/cut/coul/long 5.5 15.0
pair_coeff    1    1 morse     		  0 	       0           0  # Be Be
pair_coeff    1    1 buck                 0            1           -201.0
pair_coeff    1    1 lj/cut/coul/long	  10120.	0.413
pair_coeff    1    2 morse     		  0 	       0           0  # Be Al
pair_coeff    1    2 buck                 0            1           0
pair_coeff    1    2 lj/cut/coul/long	  0	       0
pair_coeff    1    3 morse     		  0 	       0           0  # Al Si
pair_coeff    1    3 buck                 0            1           0
pair_coeff    1    3 lj/cut/coul/long	  0	       0
pair_coeff    1    4 morse 		  0.239919     2.527420    1.815405	#Be O
pair_coeff    1    4 buck                 0.000000     1.000000   -46.00000
pair_coeff    1    4 lj/cut/coul/long     529.000      0.528
pair_coeff    2    2 morse     		  0 	       0           0  # Al Al
pair_coeff    2    2 buck                 0            1           -492.
pair_coeff    2    2 lj/cut/coul/long	  60423		0.356
pair_coeff    2    3 morse     		  0 	       0           0  # Al si
pair_coeff    2    3 buck                 0            1           0
pair_coeff    2    3 lj/cut/coul/long	  0	       0
pair_coeff    2    4 morse 		  0.361581     1.900442    2.164818	#Al O
pair_coeff    2    4 buck                 0.000000     1.000000   -71.5
pair_coeff    2    4 lj/cut/coul/long     1420.0	0.482
pair_coeff    3    3 morse     		  0 	       0           0  # Si Si
pair_coeff    3    3 buck                 0            1           -282.
pair_coeff    3    3 lj/cut/coul/long	  19730		0.391
pair_coeff    3    4 morse 		  0.340554     2.006700    2.100000	#Si O
pair_coeff    3    4 buck                 0.000000     1.000000   -60.5
pair_coeff    3    4 lj/cut/coul/long     916.		0.504
pair_coeff    4    4 morse     		  0.042395     1.379316    3.618701  # O O
pair_coeff    4    4 buck                 0.000000     1.000000   -16.7
pair_coeff    4    4 lj/cut/coul/long	  3.16		1.05
include 	potential_water.mod
# Potential Paramters

pair_coeff    1    6 morse     		  0. 	       0.           0.  		# Ow Be
pair_coeff    1    6 buck                 0            1           -354.5
pair_coeff    1    6 lj/cut/coul/long	  39.637	1.1435
pair_coeff    2    6 morse     		  0 	       0           0  		# Ow Al
pair_coeff    2    6 buck                 0            1           -554.6
pair_coeff    2    6 lj/cut/coul/long	  96.854	1.0616
pair_coeff    3    6 morse     		  0 	       0           0  		# Ow Si
pair_coeff    3    6 buck                 0            1           -419.9
pair_coeff    3    6 lj/cut/coul/long	  55.345	1.1126
pair_coeff    4    6 morse     		  0 	       0           0  		# Ow O
pair_coeff    4    6 buck                 0            1           -102.9
pair_coeff    4    6 lj/cut/coul/long	  0.70042	1.8233
pair_coeff    5    6 morse     		  0 	       0           0  # Hw Hw
pair_coeff    5    6 buck                 0            1           0
pair_coeff    5    6 lj/cut/coul/long	  0.000	      0.0
pair_coeff    6    6 morse     		  0 	       0           0  		# Ow Ow
pair_coeff    6    6 buck                 0            1           -625.4
pair_coeff    6    6 lj/cut/coul/long	  0.15525	3.166
pair_coeff    1    5 morse     		  0 	       0           0  # Hw Hw
pair_coeff    1    5 buck                 0            1           0
pair_coeff    1    5 lj/cut/coul/long	  0.000	      0.0
pair_coeff    2    5 morse     		  0 	       0           0  # Hw Hw
pair_coeff    2    5 buck                 0            1           0
pair_coeff    2    5 lj/cut/coul/long	  0.000	      0.0
pair_coeff    3    5 morse     		  0 	       0           0  # Hw Hw
pair_coeff    3    5 buck                 0            1           0
pair_coeff    3    5 lj/cut/coul/long	  0.000	      0.0
pair_coeff    4    5 morse     		  0 	       0           0  # Hw Hw
pair_coeff    4    5 buck                 0            1           0
pair_coeff    4    5 lj/cut/coul/long	  0.000	      0.0
pair_coeff    5    5 morse     		  0 	       0           0  # Hw Hw
pair_coeff    5    5 buck                 0            1           0
pair_coeff    5    5 lj/cut/coul/long	  0.000	      0.0



bond_style	harmonic
angle_style	harmonic
dihedral_style	none
improper_style	none

bond_coeff	1 1000.00 1.000
angle_coeff	1 100.0 109.47


#------ Define Settings -----

# ----- Run Minimization -----
fix 		BRX all box/relax iso 1.013
minimize	1e-25 1e-25 5000 10000 # Performs actual minimization
PPPM initialization ...
WARNING: System is not charge neutral, net charge = -0.256 (../kspace.cpp:302)
  using 12-bit tables for long-range coulomb (../kspace.cpp:321)
  G vector (1/distance) = 0.201677
  grid = 36 50 24
  stencil order = 5
  estimated absolute RMS force accuracy = 0.00104623
  estimated relative force accuracy = 7.26566e-05
  using double precision FFTs
  3d grid and FFT values/proc = 65395 43200
Neighbor list info ...
  update every 1 steps, delay 0 steps, check yes
  max neighbors/atom: 2000, page size: 100000
  master list distance cutoff = 15.3
  ghost atom cutoff = 15.3
  binsize = 7.65, bins = 15 9 5
  3 neighbor lists, perpetual/occasional/extra = 3 0 0
  (1) pair morse, perpetual
      attributes: half, newton on
      pair build: half/bin/newton/tri
      stencil: half/bin/3d/newton/tri
      bin: standard
  (2) pair buck, perpetual, copy from (1)
      attributes: half, newton on
      pair build: copy
      stencil: none
      bin: none
  (3) pair lj/cut/coul/long, perpetual, copy from (1)
      attributes: half, newton on
      pair build: copy
      stencil: none
      bin: none
Per MPI rank memory allocation (min/avg/max) = 158.3 | 158.3 | 158.3 Mbytes
Step Temp Volume Cella Cellb Cellc CellGamma Pxx Pyy Pzz Pxy Pxz Pyz Lx Ly Lz Press PotEng 
       0            0    172711.88       73.664    73.664001       36.752          120   -204287.19   -203921.25   -275759.15    14.409285    148.37018    61.948388       73.664    63.794896       36.752    -227989.2   -308818.52 
      10            0    172194.26    73.590336    73.590337    36.715248          120   -198242.94   -198866.33   -269748.85    588.97858    1435.5224   -450.30382    73.590336    63.731101    36.715248   -222286.04   -308926.98 
      20            0    171677.68    73.516672    73.516673    36.678496          120   -191077.53   -192692.18   -263360.01     1165.624    2727.6277   -964.43094    73.516672    63.667306    36.678496   -215709.91   -308996.53 
      30            0    171162.13    73.443008    73.443009    36.641744          120   -183888.41   -186498.51   -257148.71    1744.8482     4025.246   -1480.2541    73.443008    63.603511    36.641744   -209178.54   -309067.82 
      40            0    170647.62    73.369344    73.369345    36.604992          120   -176591.87    -180202.5   -250775.47    2326.1933     5327.957   -1999.7045    73.369344    63.539716    36.604992   -202523.28   -309134.35 
      50            0    170134.13     73.29568    73.295681     36.56824          120    -169176.6   -173791.05   -244188.88    2910.1319    6636.4853   -2521.1481     73.29568    63.475922     36.56824   -195718.84    -309197.3 
      60            0    169621.68    73.222016    73.222017    36.531488          120   -161832.44   -167452.54   -237984.89    3497.0297    7948.4474   -3043.5901    73.222016    63.412127    36.531488   -189089.96   -309264.18 
      70            0    169110.26    73.148352    73.148353    36.494736          120   -154313.51   -160945.26   -231382.59     4084.979    9266.4393   -3568.4282    73.148352    63.348332    36.494736   -182213.79   -309324.31 
      80            0    168599.87    73.074688    73.074689    36.457984          120   -146727.36   -154375.08   -224656.79    4675.5959    10589.912   -4094.8955    73.074688    63.284537    36.457984   -175253.08   -309381.93 
      90            0     168090.5    73.001024    73.001025    36.421232          120   -138997.51   -147664.91   -217736.34    5268.6837    11918.343   -4623.8942    73.001024    63.220742    36.421232   -168132.92   -309436.17 
     100            0    167582.16     72.92736    72.927361     36.38448          120   -131385.06   -141075.34   -210773.05    5864.7862    13252.159   -5154.2584     72.92736    63.156947     36.38448   -161077.81   -309492.35 
     110            0    167074.85    72.853696    72.853697    36.347728          120   -123468.91   -134187.56   -203856.14    6462.1562    14591.394   -5687.5787    72.853696    63.093152    36.347728   -153837.54   -309542.61 
     120            0    166568.56    72.780032    72.780033    36.310976          120   -115499.94   -127250.56   -196831.36    7061.2631    15935.427   -6222.4159    72.780032    63.029357    36.310976   -146527.29   -309590.79 
     130            0     166063.3    72.706368    72.706369    36.274224          120   -107384.19    -120171.3   -189705.02     7663.649    17284.767   -6759.4066    72.706368    62.965562    36.274224   -139086.84   -309635.99 
     140            0    165559.06    72.632704    72.632705    36.237472          120   -99200.305   -113027.96   -182382.46    8268.2731    18639.438   -7299.0209    72.632704    62.901767    36.237472   -131536.91   -309678.32 
     150            0    165055.84     72.55904    72.559041     36.20072          120    -90918.86   -105789.98   -175057.03    8875.3836     19999.81   -7840.2227     72.55904    62.837973     36.20072   -123921.96   -309718.81 
     160            0    164553.64    72.485376    72.485377    36.163968          120   -82563.292    -98483.38   -167733.11    9484.4764     21364.74   -8382.6618    72.485376    62.774178    36.163968   -116259.93   -309757.34 
     170            0    164052.47    72.411712    72.411713    36.127216          120   -74037.819   -91010.759   -160288.14     10095.63    22735.483   -8927.9588    72.411712    62.710383    36.127216   -108445.57   -309792.48 
     180            0    163552.31    72.338048    72.338049    36.090464          120   -65477.831   -83505.203   -152659.46    10709.626    24111.391   -9475.5099    72.338048    62.646588    36.090464    -100547.5   -309825.43 
     190            0    163053.16    72.264384    72.264385    36.053712          120   -56819.212   -75906.737   -145004.17    11325.976    25492.808   -10025.227    72.264384    62.582793    36.053712   -92576.705   -309855.98 
     200            0    162555.04     72.19072    72.190721     36.01696          120   -48088.266   -68239.589   -137452.01    11944.634    26878.889    -10577.11     72.19072    62.518998     36.01696   -84593.288   -309885.34 
     210            0    162057.93    72.117056    72.117057    35.980208          120   -39178.258   -60397.247   -129634.38    12565.966    28270.536   -11130.742    72.117056    62.455203    35.980208   -76403.296   -309910.55 
     220            0    161561.83    72.043392    72.043393    35.943456          120   -30205.018    -52497.11   -121651.08    13189.161    29667.374   -11685.864    72.043392    62.391408    35.943456   -68117.737   -309933.09 
     230            0    161066.75    71.969728    71.969729    35.906704          120   -21035.612   -44403.637   -113441.92    13815.548    31069.445   -12242.698    71.969728    62.327613    35.906704   -59627.055   -309951.47 
     240            0    160572.68    71.896064    71.896065    35.869952          120   -11794.496   -36241.784   -105241.89    14442.673    32476.119   -12802.008    71.896064    62.263818    35.869952   -51092.725   -309968.15 
     250            0    160079.62      71.8224    71.822401      35.8332          120   -2654.2413   -28185.619   -96951.481    15070.759    33887.261   -13362.707      71.8224    62.200024      35.8332   -42597.114   -309985.14 
     260            0    159587.58    71.748736    71.748737    35.796448          120    6151.9357   -20466.853   -90464.359    15700.772     35302.34   -13925.197    71.748736    62.136229    35.796448   -34926.426   -310036.33 
     270            0    159096.54    71.675072    71.675073    35.759696          120    15712.256   -11997.286   -82006.734    16332.743    36720.305   -14488.438    71.675072    62.072434    35.759696   -26097.255   -310045.31 
     277            0    159068.85    71.670914    71.670914    35.757621          120    16251.906   -11519.157   -81526.648    16368.436     36800.68    -14520.35    71.670914    62.068833    35.757621   -25597.966   -310045.79 
Loop time of 150.477 on 1 procs for 277 steps with 15232 atoms

100.0% CPU use with 1 MPI tasks x no OpenMP threads

Minimization stats:
  Stopping criterion = linesearch alpha is zero
  Energy initial, next-to-last, final = 
          -308818.5199     -310045.800013     -310045.800013
  Force two-norm initial, final = 73731.1 7918.09
  Force max component initial, final = 73730.9 7836.66
  Final line search alpha, max atom move = 1.90147e-16 1.49012e-12
  Iterations, force evaluations = 277 383

MPI task timing breakdown:
Section |  min time  |  avg time  |  max time  |%varavg| %total
---------------------------------------------------------------
Pair    | 134.41     | 134.41     | 134.41     |   0.0 | 89.32
Bond    | 0.006557   | 0.006557   | 0.006557   |   0.0 |  0.00
Kspace  | 4.188      | 4.188      | 4.188      |   0.0 |  2.78
Neigh   | 7.0085     | 7.0085     | 7.0085     |   0.0 |  4.66
Comm    | 0.10198    | 0.10198    | 0.10198    |   0.0 |  0.07
Output  | 0.0029755  | 0.0029755  | 0.0029755  |   0.0 |  0.00
Modify  | 0          | 0          | 0          |   0.0 |  0.00
Other   |            | 4.761      |            |       |  3.16

Nlocal:    15232 ave 15232 max 15232 min
Histogram: 1 0 0 0 0 0 0 0 0 0
Nghost:    47648 ave 47648 max 47648 min
Histogram: 1 0 0 0 0 0 0 0 0 0
Neighs:    1.08767e+07 ave 1.08767e+07 max 1.08767e+07 min
Histogram: 1 0 0 0 0 0 0 0 0 0

Total # of neighbors = 10876672
Ave neighs/atom = 714.067
Ave special neighs/atom = 0.0504202
Neighbor list builds = 24
Dangerous builds = 0

reset_timestep	0
timestep	0.0001
velocity       	all create ${probeTemp} 87287 loop geom
velocity       	all create 1800 87287 loop geom
fix		1 all npt temp ${probeTemp} ${probeTemp} 0.1 iso 1.013 1.013 5.0
fix		1 all npt temp 1800 ${probeTemp} 0.1 iso 1.013 1.013 5.0
fix		1 all npt temp 1800 1800 0.1 iso 1.013 1.013 5.0
run		10000 # Warmup
PPPM initialization ...
  using 12-bit tables for long-range coulomb (../kspace.cpp:321)
  G vector (1/distance) = 0.203017
  grid = 36 50 24
  stencil order = 5
  estimated absolute RMS force accuracy = 0.00096252
  estimated relative force accuracy = 6.68433e-05
  using double precision FFTs
  3d grid and FFT values/proc = 65395 43200
Per MPI rank memory allocation (min/avg/max) = 163 | 163 | 163 Mbytes
Step Temp Volume Cella Cellb Cellc CellGamma Pxx Pyy Pzz Pxy Pxz Pyz Lx Ly Lz Press PotEng 
       0         1800    159068.85    71.670914    71.670914    35.757621          120    39853.512    12599.444   -57719.645    16699.857    36965.066   -14614.788    71.670914    62.068833    35.757621   -1755.5633   -310045.03 
      10    1851.1144    159068.83    71.670911    71.670912     35.75762          120   -26753.175   -19646.556   -115882.17   -1981.2853   -6580.8017    2625.0556    71.670911    62.068831     35.75762   -54093.966   -310143.64 
      20    1717.4872    159068.78    71.670903    71.670904    35.757616          120   -71475.733   -42290.995   -152872.34   -15343.893   -34401.152     15037.74    71.670903    62.068823    35.757616   -88879.691   -309869.39 
      30    1663.4091    159068.68    71.670889    71.670889    35.757609          120    18854.779    4507.4581   -71138.881    8706.3008     21372.55   -7799.0723    71.670889    62.068811    35.757609   -15925.548   -309766.16 
      40    1525.9934    159068.56     71.67087     71.67087    35.757599          120     27734.65    11232.536   -60248.562    11140.975    24572.033   -9881.3145     71.67087    62.068795    35.757599   -7093.7921   -309493.73 
      50    1375.3856     159068.4    71.670846    71.670847    35.757588          120    -61393.06   -34736.435   -134350.72   -11755.064   -29563.313    12789.047    71.670846    62.068774    35.757588   -76826.739   -309194.52 
      60    1309.0111    159068.21    71.670818    71.670819    35.757574          120   -29555.656   -18157.447   -100222.62   -5083.1426   -9873.9019    5825.6575    71.670818     62.06875    35.757574   -49311.906   -309068.65 
      70    1135.3569       159068    71.670786    71.670786    35.757557          120    45374.304    24172.847   -27162.453    11956.189     31283.37   -11042.771    71.670786    62.068722    35.757557    14128.233   -308718.26 
      80     1152.313    159067.76     71.67075     71.67075     35.75754          120   -10830.561   -6907.0508   -72718.688    230.79512   -1281.9395    1002.1699     71.67075    62.068691     35.75754     -30152.1   -308759.46 
      90    1038.7146     159067.5    71.670711    71.670711     35.75752          120   -64771.748   -40075.044   -115123.42   -10792.325   -27621.191    11677.223    71.670711    62.068657     35.75752   -73323.403   -308526.62 
     100    1097.6142    159067.21    71.670667    71.670668    35.757498          120    13541.453    7132.9194    -33250.67    3685.9778     13476.54   -3239.4044    71.670667    62.068619    35.757498   -4192.0992   -308647.89 
     110    1092.2411     159066.9    71.670621    71.670622    35.757476          120    29787.163    16803.701   -11831.279    6618.8754     20186.47   -5532.2365    71.670621     62.06858    35.757476    11586.528   -308632.89 
     120    1129.0449    159066.58    71.670573    71.670574    35.757451          120   -54180.644   -38497.505   -87737.382   -6017.3658    -18385.45    6529.3667    71.670573    62.068538    35.757451    -60138.51   -308703.95 
     130    1209.2009    159066.24    71.670521    71.670522    35.757426          120   -39977.926   -29649.705   -64065.783   -3749.9604   -9267.2606    3402.1243    71.670521    62.068493    35.757426   -44564.472   -308864.12 
     140    1191.9357    159065.87    71.670466    71.670467    35.757398          120    30974.944    18809.558    15355.929    5125.1417    19690.009   -4171.8777    71.670466    62.068445    35.757398    21713.477   -308822.03 
     150    1303.6136    159065.49    71.670409     71.67041     35.75737          120    -11014.15   -11218.398    -23767.13     214.7424    1897.9235    181.79415    71.670409    62.068396     35.75737   -15333.226   -309048.69 
     160    1231.2107     159065.1     71.67035    71.670351     35.75734          120   -67846.707   -53746.297   -76364.406   -5230.5999   -16771.154    4033.1864     71.67035    62.068344     35.75734   -65985.803   -308895.27 
     170     1318.937    159064.68    71.670288    71.670288    35.757309          120   -1553.6942   -3139.2851    5043.4051    1234.1051    5425.7935   -602.47933    71.670288     62.06829    35.757309    116.80857   -309074.49 
     180    1253.2713    159064.26    71.670224    71.670224    35.757277          120    24598.079    17544.911    39061.941    2593.0947    11350.753   -1615.1667    71.670224    62.068235    35.757277    27068.311    -308937.1 
     190    1267.7852    159063.82    71.670159    71.670159    35.757245          120   -46115.486   -39295.918    -36552.88   -2858.3556    -7707.348    1578.0792    71.670159    62.068179    35.757245   -40654.761   -308966.55 
     200    1267.1623    159063.38    71.670093    71.670093    35.757212          120   -41559.125   -35140.998   -21822.173   -1380.5589   -5838.7102    1414.2949    71.670093    62.068121    35.757212   -32840.765    -308964.1 
     210    1217.2783    159062.93    71.670025    71.670026    35.757178          120    29183.459    24723.878    67786.005    2298.0026     7099.372   -662.59675    71.670025    62.068063    35.757178    40564.447   -308859.27 
     220    1286.6625    159062.49    71.669958    71.669958    35.757145          120    2262.9972    1838.2835    37500.599   -99.200954    1868.5949   -77.257664    71.669958    62.068005    35.757145    13867.293    -309001.2 
     230    1208.6722    159062.04    71.669891    71.669892    35.757111          120   -53202.675   -46301.506   -24109.758   -2077.8562   -4971.0522    1314.2064    71.669891    62.067947    35.757111   -41204.646   -308836.83 
     240    1304.0858     159061.6    71.669825    71.669825    35.757078          120    5010.4171    5629.1319    55323.904    1057.1678     246.3172    344.88261    71.669825     62.06789    35.757078    21987.818   -309031.28 
     250    1243.1593    159061.17     71.66976    71.669761    35.757046          120    39609.461    36611.007    99944.811    1509.4734    2172.9446   -360.93668     71.66976    62.067834    35.757046     58721.76   -308901.87 
     260    1298.4178    159060.75    71.669698    71.669698    35.757015          120   -21587.418   -17958.449    24123.024   -1161.5325    621.90731     478.0447    71.669698     62.06778    35.757015   -5140.9476   -309013.73 
     270    1277.0899    159060.35    71.669638    71.669638    35.756985          120   -24525.537   -20606.404    27330.622     -436.202    86.489784    271.97635    71.669638    62.067728    35.756985   -5933.7731    -308967.8 
     280    1251.6454    159059.97     71.66958    71.669581    35.756956          120    46722.978    43845.621    121518.62    1543.6108   -1614.2535   -553.05056     71.66958    62.067678    35.756956     70695.74   -308913.91 
     290    1277.5538    159059.62    71.669527    71.669528     35.75693          120    29774.053    29794.144    99245.107    317.54522    57.408497    129.84133    71.669527    62.067632     35.75693    52937.768   -308967.77 
     300     1172.845    159059.29    71.669479    71.669479    35.756905          120   -27235.027   -21992.547    29364.642   -1022.0958    3947.7718   -434.31007    71.669479     62.06759    35.756905   -6620.9773   -308752.24 
     310    1222.7284       159059    71.669434    71.669435    35.756883          120    24180.157    23119.854    100039.79     516.6211   -937.92237   -1571.7376    71.669434    62.067551    35.756883    49113.267   -308857.05 
     320     1109.992    159058.74    71.669396    71.669396    35.756864          120    65153.052    61773.154    152353.64    1006.2758   -5050.2533    291.28623    71.669396    62.067518    35.756864    93093.281   -308625.07 
     330    1138.6796    159058.53    71.669363    71.669364    35.756848          120    6340.5372    10383.798    77319.694   -222.77184    2565.2422   -384.79291    71.669363     62.06749    35.756848     31348.01    -308685.9 
     340    1085.3405    159058.35    71.669337    71.669338    35.756835          120   -7211.6755   -3633.3245    63737.099    121.81727    4229.0922   -3270.8897    71.669337    62.067467    35.756835      17630.7   -308575.39 
     350      1077.05    159058.22    71.669317    71.669317    35.756825          120    64151.778    59605.674    153826.34    896.25152   -6196.4409   -231.74438    71.669317     62.06745    35.756825    92527.932   -308557.34 
     360      1109.01    159058.13    71.669304    71.669304    35.756818          120    52387.933    51066.139       137247      559.719   -4319.6009     969.5261    71.669304    62.067438    35.756818     80233.69   -308621.23 
     370    1062.2515    159058.09    71.669298    71.669299    35.756815          120   -13426.098   -5858.5782    56747.632    883.01257    6002.1261   -3869.7771    71.669298    62.067434    35.756815    12487.652   -308520.68 
     380    1157.0674     159058.1    71.669299    71.669299    35.756816          120    30542.046    30626.604    110865.02    1162.9718    -793.5124     -2671.68    71.669299    62.067434    35.756816    57344.557   -308713.01 
     390         1099    159058.15    71.669307    71.669307     35.75682          120    78918.813    71445.615    166513.15    535.87343   -8617.3918    2096.5289    71.669307    62.067441     35.75682    105625.86   -308587.65 
     400    1195.5142    159058.26    71.669323    71.669323    35.756828          120     19668.67    23385.795     93897.64    1275.5345    1115.2613    -1792.048    71.669323    62.067455    35.756828    45650.702   -308782.67 
     410    1165.3998    159058.41    71.669345    71.669346    35.756839          120    -5304.378    3086.6058    63755.555    2189.1914    5366.0581   -5429.8377    71.669345    62.067474    35.756839    20512.594   -308715.41 
     420    1205.2611     159058.6    71.669375    71.669376    35.756854          120    70127.328    62811.845    148767.13    732.17922   -6129.2819    636.13362    71.669375      62.0675    35.756854      93902.1   -308792.73 
     430    1239.1254    159058.85    71.669412    71.669413    35.756872          120    66920.546    60231.492    141825.68    505.80854   -5116.1695      1294.98    71.669412    62.067533    35.756872     89659.24   -308857.87 
     440    1200.6428    159059.16    71.669458    71.669458    35.756895          120   -5595.6733    4517.9542     56760.15    2553.7205    5804.0062   -4970.8113    71.669458    62.067572    35.756895     18560.81   -308773.87 
     450    1287.3639     159059.5     71.66951    71.669511    35.756921          120    32605.995     34107.52    96757.381    2075.3222    324.57896   -2967.3954     71.66951    62.067617    35.756921    54490.299   -308948.91 
     460    1216.6199     159059.9     71.66957    71.669571    35.756951          120    90704.917    77635.066    157643.56    173.95846   -7143.8081    1778.1147     71.66957    62.067669    35.756951    108661.18    -308797.7 
     470     1310.684    159060.36    71.669638    71.669638    35.756985          120    34308.953    35191.287    92024.669    1446.4097    741.26904   -1781.3029    71.669638    62.067728    35.756985    53841.636   -308988.54 
     480    1258.3024    159060.86    71.669713    71.669714    35.757022          120   -2898.4444     8308.569    48388.648    3201.8926    5100.0706   -4833.5503    71.669713    62.067793    35.757022    17932.924   -308874.83 
     490    1320.6551     159061.4    71.669795    71.669796    35.757063          120     74035.77    65606.672    126897.51    1332.0953    -4149.786   -440.92942    71.669795    62.067864    35.757063    88846.652   -308998.93 
     500    1328.8014       159062    71.669885    71.669886    35.757108          120     79215.61    69018.743    127859.82     459.5389   -4267.2283    365.75776    71.669885    62.067942    35.757108     92031.39   -309010.66 
     510    1323.8881    159062.65    71.669983    71.669984    35.757157          120     258.5391    10877.359    40965.043    2516.6085    4773.8531   -3238.7733    71.669983    62.068027    35.757157     17366.98   -308995.07 
     520     1403.089    159063.35    71.670087    71.670088    35.757209          120     28942.07    33278.928    66001.197    2672.6557    1270.3262   -2179.0528    71.670087    62.068117    35.757209    42740.732   -309153.57 
     530    1341.4204    159064.08    71.670198    71.670198    35.757264          120    94306.487    81805.086    127106.93    863.09427   -5104.6092    243.28377    71.670198    62.068213    35.757264    101072.84   -309020.46 
     540    1451.5023    159064.87    71.670316    71.670317    35.757323          120    42049.288    42531.012     68462.38    1247.1277    948.19614   -950.27807    71.670316    62.068315    35.757323    51014.227   -309243.34 
     550    1380.2899     159065.7     71.67044    71.670441    35.757385          120    -5727.382    8387.1156     14382.23    2672.2548    5128.1581   -1732.5342     71.67044    62.068423    35.757385    5680.6544   -309091.22 
     560    1458.3679    159066.56    71.670571    71.670571     35.75745          120    70273.528    66553.549    82742.084    1677.1906   -2012.5551    -609.9868    71.670571    62.068535     35.75745     73189.72   -309248.39 
     570    1435.9816    159067.47    71.670707    71.670708    35.757518          120    85072.104    76923.098    90253.513    792.42059   -2269.8422   -661.80046    71.670707    62.068654    35.757518    84082.905   -309197.69 
     580    1440.0891    159068.42     71.67085     71.67085     35.75759          120    5749.6438    17388.795    4876.9558    1695.3794    4772.4963   -559.16986     71.67085    62.068777     35.75759    9338.4648   -309203.07 
     590    1479.9231    159069.41    71.670998    71.670998    35.757663          120    24741.766     34530.99    14532.096    1931.9867    1981.0215   -457.26954    71.670998    62.068905    35.757663    24601.617   -309282.08 
     600    1425.4523    159070.43    71.671151    71.671151     35.75774          120     97137.66    89271.756    76600.625    840.26363   -2887.3044   -1864.4568    71.671151    62.069038     35.75774    87670.014   -309165.76 
     610    1505.4559    159071.49     71.67131     71.67131    35.757819          120    53519.737      54495.5    27152.213    831.08977    1289.6664   -909.87443     71.67131    62.069175    35.757819    45055.817   -309328.86 
     620    1421.8233    159072.58    71.671473    71.671474    35.757901          120   -2168.5368    14530.338   -35887.996    1749.8242    3669.6876    691.13169    71.671473    62.069317    35.757901    -7842.065   -309152.86 
     630    1501.7454     159073.7    71.671642    71.671642    35.757984          120    70645.317    72195.342    25001.877    1195.0158   -1568.8343   -2119.0088    71.671642    62.069463    35.757984    55947.512   -309315.78 
     640    1444.7382    159074.85    71.671814    71.671815    35.758071          120    96006.581    89185.242    43337.986    460.26984   -2374.6458   -2675.5813    71.671814    62.069613    35.758071    76176.603   -309195.19 
     650    1465.3382    159076.03    71.671992    71.671993    35.758159          120    17600.367    28776.741   -39225.592    1128.2051    2279.6077    856.39692    71.671992    62.069767    35.758159     2383.839   -309235.58 
     660    1473.1991    159077.24    71.672174    71.672175     35.75825          120    26202.963    38895.144   -40855.444    1721.1655    656.66558    -372.7727    71.672174    62.069924     35.75825    8080.8878   -309249.86 
     670    1419.5177    159078.48    71.672359     71.67236    35.758343          120     102900.2    96771.501    27960.046    790.27594   -4006.1293   -3639.4158    71.672359    62.070085    35.758343    75877.249   -309137.18 
     680    1478.6959    159079.74    71.672549     71.67255    35.758437          120    66419.546    66492.667   -10697.982    472.28238   -1363.6467   -821.39203    71.672549    62.070249    35.758437    40738.077   -309258.38 
     690    1382.5236    159081.03    71.672743    71.672744    35.758534          120    3996.5713    20400.501   -79125.524    1525.1177    1956.7543    1628.6338    71.672743    62.070417    35.758534   -18242.817   -309058.22 
     700    1443.6589    159082.34     71.67294    71.672941    35.758632          120    71068.115    73238.214   -20197.934    1321.3803   -2639.4796   -2479.3385     71.67294    62.070588    35.758632    41369.465   -309184.24 
     710    1365.9598    159083.68    71.673141    71.673141    35.758732          120    103586.29    95869.957    10653.578    298.73336    -4629.929   -2674.4344    71.673141    62.070761    35.758732    70036.609   -309022.13 
     720    1382.1641    159085.04    71.673345    71.673346    35.758834          120    26772.215    36461.212   -67405.693    762.31658    647.74815    1714.8158    71.673345    62.070938    35.758834   -1390.7555   -309055.09 
     730    1359.2584    159086.42    71.673552    71.673553    35.758938          120    24921.527    36780.088    -76309.26     1643.563    395.37702    143.74548    71.673552    62.071118    35.758938   -4869.2152   -309006.82 
     740    1319.1095    159087.82    71.673762    71.673763    35.759043          120    102632.39    95004.306   -1442.4961    470.55268   -5037.1166   -2930.7283    71.673762      62.0713    35.759043    65398.067   -308921.81 
     750    1362.8033    159089.24    71.673976    71.673977    35.759149          120    73891.056    71290.864   -29048.761    86.498211   -2212.0475   -102.03891    71.673976    62.071485    35.759149    38711.053   -309010.78 
     760     1273.382    159090.68    71.674193    71.674193    35.759257          120    5239.6736    18755.851   -101422.73    1363.8746    2272.5488    2149.2306    71.674193    62.071672    35.759257   -25809.069   -308823.84 
     770    1353.4084    159092.14    71.674411    71.674412    35.759366          120    64309.349    64218.239   -46514.806    886.70259   -2795.1233   -1471.9297    71.674411    62.071862    35.759366    27337.594    -308987.2 
     780     1269.605    159093.61    71.674633    71.674633    35.759477          120    103841.06    93450.587   -4714.5306   -182.89381   -4230.1956   -2079.6304    71.674633    62.072053    35.759477    64192.372    -308811.1 
     790    1316.9648    159095.11    71.674857    71.674858    35.759589          120    30940.903    35817.148   -78557.576    634.94128    1569.5121    1421.6778    71.674857    62.072248    35.759589    -3933.175   -308907.27 
     800    1287.7935    159096.61    71.675083    71.675084    35.759702          120    17783.691    25619.156   -95967.261     1138.857     496.1692    761.90468    71.675083    62.072444    35.759702   -17521.471   -308844.65 
     810    1268.4613    159098.13    71.675311    71.675312    35.759815          120    94491.346    86243.195   -15398.783   -51.553137   -4323.6472   -2414.5181    71.675311    62.072641    35.759815    55111.919   -308802.87 
     820     1306.054    159099.67    71.675542    71.675543     35.75993          120    75373.457    70108.333   -32505.982   -98.722463   -1257.2233    -1217.361    71.675542    62.072841     35.75993    37658.603   -308878.55 
     830    1225.9941    159101.22    71.675775    71.675775    35.760047          120    3912.6285    12557.508   -108908.34     1014.857    2627.8522    1170.6744    71.675775    62.073043    35.760047   -30812.735   -308710.65 
     840    1304.4218    159102.78    71.676009     71.67601    35.760164          120    52671.132    53654.185   -56013.575    337.92909   -1843.3707   -1033.9938    71.676009    62.073245    35.760164    16770.581    -308871.2 
     850    1213.6931    159104.35    71.676245    71.676246    35.760281          120    98171.665    90545.799   -2732.6724   -733.23762    -3376.518   -2597.1576    71.676245     62.07345    35.760281    61994.931   -308680.68 
     860    1284.6498    159105.94    71.676484    71.676485    35.760401          120    34531.327    36486.571   -72853.348    637.34568    1268.9897    -615.5071    71.676484    62.073657    35.760401   -611.81662    -308825.6 
     870    1233.2825    159107.55    71.676725    71.676726    35.760521          120     11009.57    18921.815   -98079.571    991.72434    1418.1317   -132.64461    71.676725    62.073865    35.760521   -22716.062   -308716.49 
     880    1256.6507    159109.16    71.676967    71.676968    35.760642          120    82973.044    81785.747   -10342.059   -1249.6243   -2430.1907   -2075.6937    71.676967    62.074075    35.760642    51472.244    -308761.5 
     890    1285.1947    159110.79    71.677212    71.677212    35.760764          120    75776.311    73612.089   -18162.761   -605.08371   -1390.9255   -1878.7227    71.677212    62.074287    35.760764     43741.88   -308817.35 
     900    1238.6252    159112.44    71.677459     71.67746    35.760887          120    7122.8829    13051.377    -100434.7    1647.4658    1380.1194   -582.15383    71.677459    62.074501    35.760887   -26753.481   -308717.53 
     910    1332.5541    159114.09    71.677708    71.677709    35.761011          120    43151.898    48334.014   -50747.996   -444.83692   -538.60874   -1347.8019    71.677708    62.074717    35.761011    13579.305   -308907.84 
     920    1259.3621    159115.76    71.677959     71.67796    35.761136          120    93337.729    93329.777    14076.446   -2110.2355   -1854.5862   -1945.5647    71.677959    62.074934    35.761136    66914.651   -308751.83 
     930    1356.7117    159117.46    71.678213    71.678214    35.761263          120    41549.787    43454.031   -52628.483    699.94427   -736.08883   -1043.5803    71.678213    62.075154    35.761263    10791.778   -308949.47 
     940    1304.7716    159119.17     71.67847    71.678471    35.761391          120    11065.919    16988.213   -87558.703     1607.233    -979.1126   -836.20188     71.67847    62.075377    35.761391   -19834.857    -308837.6 
     950    1359.4445    159120.89    71.678729     71.67873    35.761521          120    79262.341    82233.034    4318.3777   -1917.4924   -1472.1485   -1221.1529    71.678729    62.075601    35.761521    55271.251   -308946.92 
     960    1365.5706    159122.64    71.678992    71.678992    35.761652          120    82379.349    82777.579    7422.8546   -1622.1089   -1292.9383   -860.35755    71.678992    62.075828    35.761652    57526.594   -308955.57 
     970    1348.3699    159124.41    71.679258    71.679258    35.761784          120    16387.508    19644.883   -77711.693     1907.023   -2411.3462   -351.21191    71.679258    62.076059    35.761784   -13893.101   -308915.79 
     980     1416.587     159126.2    71.679527    71.679527    35.761919          120     44718.07    48719.938   -36066.541    310.60365   -2440.4807   -283.56029    71.679527    62.076292    35.761919    19123.822   -309053.46 
     990    1347.6688    159128.02    71.679799      71.6798    35.762055          120    100534.47    100685.05    37580.494   -2608.3366   -918.70962   -58.896507    71.679799    62.076528    35.762055    79600.004   -308906.74 
    1000    1440.9732    159129.87    71.680077    71.680077    35.762193          120    55856.097    56141.204   -21715.661    -354.4064   -2213.7338   -86.958806    71.680077    62.076768    35.762193     30093.88   -309096.22 
    1010    1368.2209    159131.74    71.680358    71.680359    35.762333          120    19381.309     22532.62   -65682.488     1843.484   -3809.7078   -278.55557    71.680358    62.077012    35.762333    -7922.853   -308941.92 
    1020    1430.7189    159133.64    71.680643    71.680644    35.762476          120     85883.53    86756.035    23274.296    -1216.782   -1338.4434    684.50533    71.680643    62.077259    35.762476    65304.621   -309067.64 
    1030    1413.7997    159135.58    71.680934    71.680934    35.762621          120    97143.452    95741.263    37520.002    -1999.073   -831.03006     660.6077    71.680934     62.07751    35.762621    76801.572   -309028.94 
    1040    1403.4452    159137.55     71.68123    71.681231    35.762768          120    30938.424    31598.017   -46313.375      823.088   -3709.5784   -683.15713     71.68123    62.077767    35.762768    5407.6886   -309004.41 
    1050    1450.2222    159139.55    71.681531    71.681531    35.762918          120    51071.245    52289.719   -16868.221    517.06649   -2632.9596    64.076993    71.681531    62.078027    35.762918    28830.914   -309097.82 
    1060    1387.4683    159141.59    71.681837    71.681838    35.763071          120    111713.08    110321.69    62069.508   -1276.7909    319.31221    978.95998    71.681837    62.078293    35.763071    94701.426   -308964.41 
    1070    1464.0635    159143.68     71.68215    71.682151    35.763227          120    72858.304    71253.871    13727.411   -405.80791   -1727.2859   -322.70456     71.68215    62.078564    35.763227    52613.195   -309120.37 
    1080    1382.3779     159145.8    71.682469     71.68247    35.763387          120    29087.636    28792.176   -38925.743    605.37306   -3658.5834   -778.40005    71.682469     62.07884    35.763387     6318.023   -308948.49 
    1090    1447.1106    159147.97    71.682794    71.682795    35.763549          120    92558.667    91414.448    44681.773    344.55464    170.59436    110.93972    71.682794    62.079121    35.763549    76218.296   -309079.88 
    1100    1399.6587    159150.18    71.683126    71.683127    35.763714          120    111213.99    108958.79    70884.044     115.1901    898.88666   -475.60753    71.683126    62.079409    35.763714    97018.941   -308979.35 
    1110    1402.5606    159152.44    71.683466    71.683466    35.763884          120    44319.014    43054.884   -10932.229     392.9937   -2801.7504   -391.11703    71.683466    62.079703    35.763884    25480.557    -308982.7 
    1120    1424.1671    159154.75    71.683812    71.683813    35.764057          120    55668.813    54801.571    6581.0096    964.94869   -1123.3118   -216.99345    71.683812    62.080003    35.764057    39017.131   -309024.99 
    1130    1360.4521     159157.1    71.684166    71.684166    35.764233          120    119594.12    117015.78    90067.959    1146.7281    2152.2275   -1494.8072    71.684166    62.080309    35.764233    108892.62    -308890.9 
    1140    1436.6191    159159.51    71.684528    71.684528    35.764414          120    85488.903    84102.576     50672.52    1144.5164   -180.48991   -516.09918    71.684528    62.080623    35.764414    73421.333   -309046.27 
    1150    1342.0775    159161.98    71.684898    71.684899    35.764598          120    33656.656     34857.16   -10842.223    1001.7923   -1865.0579    733.36567    71.684898    62.080943    35.764598    19223.865   -308848.29 
    1160    1417.0697    159164.49    71.685276    71.685276    35.764787          120    93658.268    91914.929     66212.54    1265.1307    1417.4149   -1453.1153    71.685276     62.08127    35.764787    83928.579   -309000.98 
    1170    1355.8144    159167.07    71.685662    71.685662    35.764979          120    119283.52    115885.56     100165.2    1653.4191    1751.9185   -1439.3166    71.685662    62.081605    35.764979    111778.09   -308871.49 
    1180    1376.6215     159169.7    71.686057    71.686058    35.765177          120    50181.179    52845.279    19992.773    1786.3273   -1039.6129    710.30926    71.686057    62.081947    35.765177     41006.41   -308912.48 
    1190    1377.8205    159172.39     71.68646    71.686461    35.765378          120    51403.173    54033.115     24691.21    647.47074   -93.968298   -614.00752     71.68646    62.082297    35.765378    43375.833   -308912.63 
    1200    1338.6472    159175.13    71.686872    71.686873    35.765583          120    121166.58    115802.93    107969.92    776.99499    2181.7821   -1178.6014    71.686872    62.082653    35.765583    114979.81   -308828.35 
    1210    1401.5278    159177.93    71.687293    71.687294    35.765793          120    91776.562    90708.431    77309.276    2343.7871    714.41643    154.79535    71.687293    62.083018    35.765793    86598.089    -308956.4 
    1220    1313.2945     159180.8    71.687723    71.687724    35.766008          120    28996.722     36785.48    9367.1056     1305.574   -840.11803   -953.78621    71.687723     62.08339    35.766008    25049.769   -308771.03 
    1230    1404.8433    159183.72    71.688162    71.688162    35.766227          120    87760.235    85618.468    75191.184   -523.67576    1585.0228   -930.72579    71.688162     62.08377    35.766227    82856.629   -308957.68 
    1240    1323.3718     159186.7    71.688609     71.68861     35.76645          120    122461.81    115145.13    116055.87    1163.9972    1945.9766    1140.8173    71.688609    62.084157     35.76645     117887.6   -308786.06 
    1250    1377.8963    159189.75    71.689066    71.689067    35.766678          120    49585.295    55839.025    41402.649    2661.6173   -70.748265   -1087.2197    71.689066    62.084553    35.766678    48942.323   -308896.22 
    1260    1357.1234    159192.85    71.689532    71.689532     35.76691          120     41383.57    47531.553    31502.962      7.94924    242.02692   -2730.3179    71.689532    62.084956     35.76691    40139.361   -308850.14 
    1270    1342.3807       159196    71.690006    71.690006    35.767147          120    117747.54     109659.3    112703.95   -199.32142     1728.282    1522.0128    71.690006    62.085367    35.767147    113370.26   -308817.14 
    1280    1394.3068    159199.22    71.690489     71.69049    35.767388          120    93191.538    91578.276    91924.135     2365.387    1012.3575    840.62987    71.690489    62.085786    35.767388    92231.316   -308921.34 
    1290    1322.5608    159202.51    71.690982    71.690982    35.767634          120    23037.289    33746.503    18951.033    2123.7492   -333.26472   -3895.8758    71.690982    62.086212    35.767634    25244.942   -308769.71 
    1300    1412.2098    159205.84    71.691483    71.691483    35.767883          120    77919.255    76607.132    72683.748     321.3542    123.06948   -934.50309    71.691483    62.086646    35.767883    75736.712   -308952.34 
    1310    1337.5837    159209.24    71.691992    71.691993    35.768138          120    120294.74     112991.4    119151.41     1510.098    541.94054    1915.5322    71.691992    62.087087    35.768138    117479.18   -308793.82 
    1320    1412.2387    159212.69    71.692511    71.692512    35.768397          120    50001.478    56500.218     49084.78    3513.0342    717.72236   -1675.8156    71.692511    62.087536    35.768397    51862.159   -308944.84 
    1330    1376.2335    159216.21    71.693038    71.693039     35.76866          120    32392.563    39010.826    26288.611    2193.7308   -412.91938   -2813.2175    71.693038    62.087993     35.76866        32564   -308866.67 
    1340    1398.8982    159219.77    71.693573    71.693574    35.768927          120     109316.6    103339.31    104758.81    1323.7728   -900.01854   -19.668565    71.693573    62.088456    35.768927    105804.91   -308909.36 
    1350    1431.1878     159223.4    71.694117    71.694118    35.769198          120    94425.423    93045.462    90906.642    3434.9603    912.83156    58.812236    71.694117    62.088928    35.769198    92792.509   -308972.48 
    1360    1382.4541    159227.08     71.69467    71.694671    35.769474          120    22212.255    30378.078    12125.527    3544.7345    892.43171   -1189.0619     71.69467    62.089406    35.769474    21571.954   -308867.86 
    1370    1469.8098    159230.81     71.69523    71.695231    35.769753          120    67234.334    67400.112    55584.297     1306.203   -1432.7896    -1623.278     71.69523    62.089891    35.769753    63406.248   -309044.84 
    1380     1394.477     159234.6    71.695799    71.695799    35.770037          120    116819.45    111945.71     107610.3     2419.179    73.383948   -1075.2998    71.695799    62.090384    35.770037    112125.15   -308885.02 
    1390    1476.1483    159238.44    71.696375    71.696376    35.770325          120    55060.083    57964.933    38625.376    3626.0641    1748.0107    424.77231    71.696375    62.090883    35.770325    50550.131   -309050.69 
    1400    1428.6069    159242.33     71.69696     71.69696    35.770616          120    27808.692    32056.789     3460.182    1658.9879     -409.172   -121.21237     71.69696    62.091389    35.770616    21108.554    -308948.4 
    1410    1459.2016    159246.27    71.697551    71.697551    35.770911          120    100777.79    98613.103    82022.056    1142.3738   -255.97889   -2090.7463    71.697551    62.091901    35.770911    93804.316   -309008.73 
    1420    1473.1277    159250.27     71.69815    71.698151     35.77121          120    96403.964     95193.01    74942.858    2542.9945    1854.8168   -712.60066     71.69815     62.09242     35.77121    88846.611   -309034.01 
    1430    1436.0598    159254.31    71.698757    71.698757    35.771513          120    25677.132    28253.357   -11172.188    2670.8107    1096.4708    1703.3839    71.698757    62.092945    35.771513    14252.767   -308954.06 
    1440    1504.7169    159258.39     71.69937     71.69937    35.771819          120    59265.324     60309.98     23535.95     961.9486    37.970152   -761.78681     71.69937    62.093476    35.771819    47703.751   -309093.23 
    1450    1429.0223    159262.52     71.69999     71.69999    35.772128          120    111451.32    110981.93    83085.364    974.10617    1740.5573   -2209.3077     71.69999    62.094013    35.772128    101839.54      -308933 
    1460    1512.4803     159266.7    71.700617    71.700617    35.772441          120    59243.824     59391.76    17391.789    2674.1524    1683.9164    1008.5135    71.700617    62.094556    35.772441    45342.458   -309102.73 
    1470    1443.1465    159270.92     71.70125    71.701251    35.772757          120    25153.897    25901.803   -29602.192    2218.9471    539.12822    1637.6182     71.70125    62.095105    35.772757    7151.1696   -308956.09 
    1480    1490.4311    159275.18    71.701889     71.70189    35.773075          120    91650.548    92557.828    48237.537    185.80133    1712.5248   -1631.9051    71.701889    62.095658    35.773075    77481.971    -309050.9 
    1490     1482.087    159279.48    71.702534    71.702535    35.773397          120    95040.899    96151.513    52148.398    946.22114    2157.7128   -948.09565    71.702534    62.096217    35.773397    81113.603   -309030.28 
    1500     1452.889    159283.82    71.703186    71.703186    35.773722          120     26809.17    26952.649   -37306.307    2908.5018    496.96795    2086.2036    71.703186    62.096781    35.773722    5485.1708   -308967.15 
    1510    1510.6391     159288.2    71.703842    71.703843     35.77405          120    51254.138    51194.308   -13795.049    1001.8924    1227.9381    254.66828    71.703842     62.09735     35.77405    29551.132   -309083.87 
    1520     1431.589    159292.61    71.704504    71.704505     35.77438          120    104897.04    107352.34    55632.774   -185.33794     3225.088   -1581.1429    71.704504    62.097923     35.77438    89294.051   -308917.02 
    1530    1513.4662    159297.06    71.705171    71.705172    35.774713          120    59688.331    61905.222   -1814.9071    1934.0376    1297.3955    754.51427    71.705171    62.098501    35.774713    39926.215    -309084.1 
    1540    1430.1752    159301.54    71.705844    71.705844    35.775048          120    20788.189    19918.028    -61022.53    2417.8308   -541.29518    1285.0566    71.705844    62.099083    35.775048   -6772.1044   -308908.98 
    1550    1492.8781    159306.05     71.70652    71.706521    35.775386          120    82913.546      84102.5    17434.045    396.48433    2736.6778   -1282.1003     71.70652    62.099669    35.775386    61483.363   -309036.13 
    1560    1457.0317    159310.59    71.707202    71.707202    35.775726          120    92471.518    95945.278    34152.276    868.45811    3147.8002   -561.52097    71.707202    62.100259    35.775726     74189.69   -308959.12 
    1570    1456.8389    159315.16    71.707888    71.707889    35.776068          120    26348.214    26988.812   -57620.774    2840.2039   -1174.3404    1025.8068    71.707888    62.100853    35.776068   -1427.9164   -308955.63 
    1580    1491.2365    159319.76    71.708578    71.708579    35.776413          120    42658.698    42171.065    -43538.31    1627.1985   -164.47789   -869.47228    71.708578    62.101451    35.776413    13763.818   -309024.27 
    1590    1425.5067    159324.39    71.709272    71.709272    35.776759          120     99079.49    101230.96    35545.085    615.87028    3428.9581   -1156.1261    71.709272    62.102052    35.776759    78618.513   -308884.64 
    1600    1508.1917    159329.04     71.70997    71.709971    35.777107          120    61602.783    62660.372   -14721.923    2312.3976    863.82349    235.41385     71.70997    62.102657    35.777107    36513.744   -309052.78 
    1610    1411.6624    159333.72    71.710673    71.710673    35.777458          120    16729.411    15693.567   -82432.473    2360.6273   -1822.4785   -499.84472    71.710673    62.103265    35.777458   -16669.832   -308850.35 
    1620     1485.738    159338.43    71.711378    71.711379     35.77781          120    74168.178    74730.772   -3414.7852    791.99117    1568.9307   -1195.6382    71.711378    62.103876     35.77781    48494.722   -309001.31 
    1630    1425.5432    159343.15    71.712087    71.712088    35.778163          120     93302.98    93503.307    23871.242    2024.6229    2228.5176    71.364915    71.712087     62.10449    35.778163    70225.843   -308873.68 
    1640    1438.4568    159347.91    71.712801    71.712801    35.778519          120    29880.137    28168.771   -66751.992    2434.8958   -390.46676   -160.28829    71.712801    62.105108    35.778519   -2901.0281   -308898.68 
    1650    1443.5409    159352.68    71.713517    71.713518    35.778877          120    34736.035     34963.07   -59608.014    560.76683    453.42241   -1344.7208    71.713517    62.105728    35.778877    3363.6969   -308906.57 
    1660    1397.9281    159357.48    71.714237    71.714237    35.779236          120    96430.607    96733.145    25779.752    2130.8008    1723.0525    524.50011    71.714237    62.106351    35.779236    72981.168   -308809.28 
    1670    1458.4728    159362.31     71.71496    71.714961    35.779597          120    68189.303    66257.622   -15679.886    2902.5726    575.47746    550.01962     71.71496    62.106978    35.779597    39589.013   -308932.62 
    1680    1373.6466    159367.15    71.715688    71.715688     35.77996          120    15322.676    15082.841   -87588.644     295.7579    662.86863   -2123.4746    71.715688    62.107608     35.77996   -19061.043   -308754.25 
    1690    1455.2932    159372.02    71.716418    71.716418    35.780324          120    68857.461    70366.164   -13297.998    1470.9628    1596.7837    -97.85927    71.716418     62.10824    35.780324    41975.209    -308920.5 
    1700    1384.3641    159376.91    71.717151    71.717152     35.78069          120    97760.883     97099.62    24217.561    3860.2745    380.86614    1756.0899    71.717151    62.108875     35.78069    73026.022   -308770.77 
    1710    1427.3859    159381.83    71.717889     71.71789    35.781058          120     35632.36    33834.849    -61536.71    1292.5204   -363.13511    -1816.386    71.717889    62.109514    35.781058    2643.4999   -308857.12 
    1720    1417.9161    159386.77     71.71863    71.718631    35.781428          120    32064.089     33290.93   -65175.658   -28.364682    1416.4939   -2043.9034     71.71863    62.110156    35.781428    59.787032   -308834.53 
    1730    1394.5349    159391.73    71.719374    71.719375    35.781799          120    97638.514    98887.753    22798.485     3993.368    785.32523    1769.7411    71.719374    62.110801    35.781799    73108.251   -308783.19 
    1740    1452.7863    159396.72    71.720123    71.720123    35.782172          120     76228.43     74828.96   -6771.7387    3419.5365   -1355.4637   -289.51135    71.720123    62.111449    35.782172    48095.217   -308900.43 
    1750    1378.5301    159401.74    71.720875    71.720876    35.782548          120     19408.72    19287.546   -83530.422   -983.79168   -440.66201   -3204.7641    71.720875    62.112101    35.782548   -14944.719   -308743.53 
    1760    1461.4118    159406.78    71.721631    71.721632    35.782925          120    68719.402    71069.534   -18354.262    1942.6216    1191.0916    382.68556    71.721631    62.112755    35.782925    40478.224   -308911.91 
    1770    1394.7615    159411.85    71.722391    71.722391    35.783304          120    103754.78    104277.95    30917.409    5238.7063   -883.36353    620.32508    71.722391    62.113413    35.783304    79650.047   -308770.03 
    1780    1447.8659    159416.94    71.723155    71.723156    35.783685          120    43955.251    44242.514   -48481.731    757.64186   -2036.6806    -2934.595    71.723155    62.114075    35.783685    13238.678   -308876.82 
    1790    1426.2254    159422.07    71.723924    71.723924    35.784069          120     32994.33    36370.863   -65413.508   -1139.5824    278.22875   -1246.7933    71.723924    62.114741    35.784069    1317.2283   -308828.71 
    1800    1426.4347    159427.22    71.724696    71.724696    35.784454          120    99348.925     102111.8    26031.485    4454.6193   -315.67831     553.2647    71.724696    62.115409    35.784454    75830.736   -308825.19 
    1810    1469.6321     159432.4    71.725473    71.725474    35.784842          120    84912.924    85753.074     9283.664    4153.3434   -2210.2704   -1870.0284    71.725473    62.116082    35.784842     59983.22      -308911 
    1820    1408.0426    159437.61    71.726255    71.726256    35.785232          120    23471.279     26969.13   -72694.153   -1141.9566   -1342.3003   -2283.2775    71.726255     62.11676    35.785232   -7417.9144   -308780.05 
    1830     1498.407    159442.85    71.727041    71.727042    35.785624          120    66070.838    71532.705   -14586.064    1531.6601   -447.26396   -4.5872315    71.727041     62.11744    35.785624    41005.826   -308963.17 
    1840    1420.7323    159448.13    71.727832    71.727832    35.786019          120    109077.24    110575.72    43969.567    5435.2417   -1897.3027   -968.55713    71.727832    62.118125    35.786019    87874.174   -308798.59 
    1850    1495.7553    159453.44    71.728628    71.728628    35.786416          120    51935.257    53600.745   -28614.962     1999.172   -2132.1394   -2251.2737    71.728628    62.118815    35.786416    25640.346   -308950.36 
    1860    1456.4418    159458.78    71.729429    71.729429    35.786815          120    30406.866    36563.779    -54578.29   -339.26198   -903.89577   -716.36013    71.729429    62.119508    35.786815    4130.7851   -308865.14 
    1870    1470.1302    159464.15    71.730234    71.730235    35.787217          120    99339.157    103027.31    36106.938     4048.151   -1312.9406   -435.76331    71.730234    62.120206    35.787217    79491.135      -308890 
    1880    1497.0243    159469.56    71.731046    71.731046    35.787622          120    92882.561    93280.272    30161.129    4424.1006   -1852.4767   -1450.8458    71.731046    62.120908    35.787622    72107.987   -308942.26 
    1890    1441.1565    159475.01    71.731862    71.731863     35.78803          120    26267.417      29875.6    -51127.28    111.42445   -1155.3267   -1332.9076    71.731862    62.121616     35.78803    1671.9124   -308823.45 
    1900    1516.1105    159480.49    71.732684    71.732685     35.78844          120    62915.085    68381.906   -2770.3514    1624.4694   -885.80708    -615.4216    71.732684    62.122327     35.78844    42842.213   -308975.95 
    1910     1432.081    159486.01    71.733512    71.733512    35.788852          120    112844.81    114007.63    61035.508    4993.3621    -1280.842   -626.61786    71.733512    62.123044    35.788852     95962.65   -308798.37 
    1920     1512.701    159491.57    71.734345    71.734346    35.789268          120    59681.857    59524.899   -1724.9964    2148.6628   -922.27373   -1313.2234    71.734345    62.123766    35.789268    39160.586   -308962.49 
    1930    1445.8453    159497.17    71.735185    71.735185    35.789687          120    29172.255    32989.727   -36215.425   -312.73244   -572.94492   -1397.2817    71.735185    62.124493    35.789687    8648.8525   -308821.03 
    1940    1488.1162     159502.8    71.736029     71.73603    35.790109          120    97817.688    101032.26     49072.47    3864.5391   -709.47148   -479.80132    71.736029    62.125225    35.790109    82640.806   -308905.15 
    1950    1485.9234    159508.48    71.736881    71.736881    35.790533          120    99311.596    98272.272    53372.757    4479.3927   -315.41868   -655.85344    71.736881    62.125962    35.790533    83652.208   -308897.24 
    1960    1453.5672    159514.21    71.737739    71.737739    35.790961          120     30671.62    29866.966   -26772.315    159.02624   -154.70527   -1831.5729    71.737739    62.126705    35.790961    11255.424   -308827.56 
    1970    1518.3055    159519.97    71.738602    71.738603    35.791392          120    58410.442    61383.955     8620.031    1182.5184    -293.1258   -1414.3647    71.738602    62.127453    35.791392    42804.809   -308958.38 
    1980     1438.681    159525.77    71.739472    71.739472    35.791826          120    113099.56    114600.17    77276.822    5140.6629     430.7689   0.53293363    71.739472    62.128206    35.791826    101658.85   -308790.36 
    1990     1521.941    159531.62    71.740349    71.740349    35.792263          120    65636.945    63257.472     22453.31    2802.4454    487.01443   -1305.5072    71.740349    62.128965    35.792263    50449.243    -308960.2 
    2000    1444.2391    159537.51    71.741232    71.741232    35.792704          120    27122.267    26308.054   -21620.403   -480.49474   -213.09183   -3029.6023    71.741232     62.12973    35.792704    10603.306   -308796.29 
    2010    1496.7694    159543.44    71.742121    71.742121    35.793148          120    92271.711    95356.313    59726.839    3158.0391    629.01046   -379.82822    71.742121      62.1305    35.793148    82451.621   -308902.74 
    2020    1467.9087    159549.42    71.743017    71.743017    35.793595          120    100729.95    101850.23    72436.434    4576.4283    856.97113    523.25515    71.743017    62.131276    35.793595    91672.204   -308840.21 
    2030    1455.9186    159555.44     71.74392     71.74392    35.794045          120    32483.956    30378.295   -8706.7376    877.42887   -100.85639   -3476.2112     71.74392    62.132058    35.794045    18051.838      -308813 
    2040     1489.814     159561.5    71.744829    71.744829    35.794499          120    51242.562    52706.607    16935.719    668.96884    314.43264   -2847.6999    71.744829    62.132845    35.794499    40294.963   -308880.96 
    2050    1423.4473    159567.61    71.745744    71.745745    35.794955          120    108709.92     113045.3    90090.698    3644.1861    602.07576    1797.3608    71.745744    62.133638    35.794955    103948.64   -308740.64 
    2060    1498.6557    159573.77    71.746667    71.746667    35.795416          120    67706.988    68898.363    39884.088    2580.0281   -102.37145   -1136.2446    71.746667    62.134437    35.795416    58829.813   -308893.76 
    2070    1414.7067    159579.97    71.747596    71.747597    35.795879          120    23223.029    23604.401   -12849.379    472.72476    297.40087   -5253.2442    71.747596    62.135242    35.795879    11326.017   -308717.33 
    2080    1481.2439    159586.21    71.748532    71.748532    35.796346          120    83793.338    87991.756    66023.562    1566.0991    648.32719   -12.252471    71.748532    62.136052    35.796346    79269.552   -308852.14 
    2090    1442.7109     159592.5    71.749474    71.749475    35.796816          120    100642.15    104240.12    85519.857    1903.1763    224.58485     1772.419    71.749474    62.136868    35.796816    96800.706   -308769.17 
    2100    1449.1257    159598.84    71.750424    71.750425     35.79729          120    33314.492     34922.58    1927.9768    1172.8561   -131.27768   -4174.1649    71.750424    62.137691     35.79729     23388.35    -308779.9 
    2110    1476.9216    159605.22     71.75138    71.751381    35.797767          120    42597.542    45867.415     18198.56    863.95033    565.47625   -3202.4549     71.75138    62.138518    35.797767    35554.506   -308834.06 
    2120    1428.6068    159611.64    71.752342    71.752343    35.798247          120    105695.33    109069.59    94560.357    252.94509    1186.8415    1895.0224    71.752342    62.139352    35.798247    103108.42   -308730.44 
    2130    1500.1837    159618.11    71.753312    71.753312    35.798731          120    71586.682     73748.48    49907.072    418.74672   -139.04117   -976.65556    71.753312    62.140192    35.798731    65080.744    -308875.4 
    2140    1424.8512    159624.63    71.754288    71.754289    35.799218          120    19197.449    22510.956   -11435.806    1074.7644   -797.09041   -3764.7671    71.754288    62.141037    35.799218    10090.866   -308716.07 
    2150    1501.1294    159631.18    71.755271    71.755271    35.799708          120    78245.004    81555.962    60986.165   -24.331932    1286.5087    401.97005    71.755271    62.141888    35.799708     73595.71   -308870.71 
    2160    1449.2303    159637.79     71.75626     71.75626    35.800202          120    103858.69    105737.84    88305.688   -676.59754    1216.5134    1182.8439     71.75626    62.142745    35.800202    99300.739   -308759.82 
    2170     1478.793    159644.44    71.757256    71.757257    35.800699          120    35812.868     38768.25    5924.9581    783.30364   -1954.6988   -2069.0406    71.757256    62.143607    35.800699    26835.359   -308817.48 
    2180    1488.7293    159651.13    71.758259    71.758259    35.801199          120    37307.997    41785.138    9443.1279    764.79478   -883.31287   -651.70944    71.758259    62.144475    35.801199    29512.088   -308834.69 
    2190    1452.1387    159657.86    71.759267    71.759268    35.801702          120    104964.23    107576.43    86731.591   -969.17741    2026.3927    1552.9465    71.759267    62.145349    35.801702    99757.418   -308755.42 
    2200    1524.0717    159664.64    71.760283    71.760283    35.802209          120    77118.913    78915.722     51075.81    39.058691   -785.28126   -138.41801    71.760283    62.146228    35.802209    69036.815   -308900.66 
    2210    1442.8809    159671.46    71.761305    71.761305    35.802719          120    18902.523    23023.314   -17780.284     1468.855   -3463.6035   -1307.9299    71.761305    62.147114    35.802719    8048.5177   -308729.43 
    2220    1530.1553    159678.32    71.762332    71.762333    35.803231          120    74071.226    77920.857    45178.389   -548.71246    475.45466    566.74542    71.762332    62.148004    35.803231    65723.491   -308906.84 
    2230    1467.0974    159685.22    71.763367    71.763367    35.803747          120    107003.59    108100.67    81065.548   -1064.7098    1262.7071    891.18394    71.763367    62.148899    35.803747     98723.27   -308772.61 
    2240    1512.8398    159692.17    71.764407    71.764408    35.804267          120    41471.966    43626.833    1956.0494    1585.8914   -3360.9244   -763.01491    71.764407    62.149801    35.804267    29018.283   -308864.43 
    2250    1502.5529    159699.16    71.765454    71.765455    35.804789          120    33776.882    38558.253   -8541.6451    736.40823   -2829.6359   -523.35302    71.765454    62.150707    35.804789    21264.497   -308839.71 
    2260    1489.4716    159706.18    71.766506    71.766507    35.805314          120    103682.99    104877.78    71219.769    -2019.338    1440.7905    414.77968    71.766506    62.151618    35.805314    93260.181   -308809.04 
    2270    1540.0261    159713.25    71.767565    71.767565    35.805842          120    83511.435    83307.422    45349.782     111.0769   -1060.1589   -111.07116    71.767565    62.152535    35.805842     70722.88    -308910.7 
    2280    1468.6583    159720.36    71.768629     71.76863    35.806373          120    19438.368      23945.8   -30949.743    2475.9177   -5462.7152   -347.10302    71.768629    62.153457    35.806373    4144.8082   -308759.55 
    2290    1557.8507     159727.5    71.769699      71.7697    35.806907          120     68698.16    71805.109    24967.769   -1300.6205   -1239.2154   -61.079726    71.769699    62.154383    35.806907    55157.013   -308940.96 
    2300    1475.5484    159734.68    71.770774    71.770775    35.807443          120    109453.65    107377.47    70312.153   -2156.7867    952.57823   -786.07175    71.770774    62.155314    35.807443    95714.425   -308767.23 
    2310     1543.908     159741.9    71.771856    71.771856    35.807983          120     46192.16    46741.685   -5434.7681     2279.451   -5134.5571   -91.161429    71.771856    62.156251    35.807983    29166.359   -308905.26 
    2320    1505.4173    159749.15    71.772942    71.772943    35.808525          120    28548.018    32921.045   -27150.577    1147.3681   -5663.3049    648.76154    71.772942    62.157192    35.808525    11439.495   -308822.42 
    2330    1511.5581    159756.44    71.774033    71.774034    35.809069          120    100007.18    99257.342    54840.968   -2447.2666     439.5338    -1036.967    71.774033    62.158137    35.809069    84701.829   -308832.07 
    2340    1543.5993    159763.76     71.77513    71.775131    35.809616          120    87315.503    84156.996    38010.546    167.88853   -2276.1449   -902.90189     71.77513    62.159087    35.809616    69827.682   -308894.92 
    2350    1485.3325    159771.12    71.776232    71.776233    35.810166          120    20214.294    21018.445   -42861.214    2602.6443   -8639.1871    1457.6962    71.776232    62.160041    35.810166   -542.82497   -308771.16 
    2360    1561.9787    159778.51    71.777339    71.777339    35.810718          120    61310.217    62868.791    4995.9821   -466.08679   -3211.4107    201.97421    71.777339    62.160999    35.810718     43058.33   -308926.71 
    2370    1485.7723    159785.93     71.77845     71.77845    35.811273          120    106859.31    105097.56    58510.086    -984.3637    332.62933   -2082.3743     71.77845    62.161961    35.811273    90155.653   -308765.04 
    2380    1557.4815    159793.39    71.779566    71.779566    35.811829          120    49598.455    47109.598   -12240.484    1810.4356   -7102.3771    720.55787    71.779566    62.162928    35.811829    28155.856   -308910.74 
    2390    1502.8057    159800.87    71.780686    71.780687    35.812389          120    23986.087    24564.532   -44605.931     1259.664   -7970.7965     1884.234    71.780686    62.163899    35.812389     1314.896    -308794.3 
    2400    1532.4417    159808.38    71.781811    71.781811    35.812949          120    91765.013      92864.3    37684.409   -502.68328   -178.47008   -1937.9247    71.781811    62.164872    35.812949    74104.574   -308852.19 
    2410    1536.9723    159815.92     71.78294     71.78294    35.813513          120    87021.509    86356.699    30855.975    692.94209   -2373.8289   -1570.6766     71.78294     62.16585    35.813513    68078.061   -308858.44 
    2420    1496.8337    159823.49    71.784073    71.784074    35.814078          120      20034.6    19460.206   -53274.715    1686.6411   -9315.2953    1902.9053    71.784073    62.166831    35.814078   -4593.3029   -308772.27 
    2430    1561.2033    159831.08     71.78521     71.78521    35.814645          120    52369.625    53966.503   -14029.523    112.78248   -3707.3643   -239.75605     71.78521    62.167816    35.814645    30768.868   -308902.15 
    2440    1483.3493     159838.7     71.78635    71.786351    35.815214          120    102603.86    104688.08    46991.576   -137.10164     802.6477   -3036.9044     71.78635    62.168804    35.815214    84761.173   -308738.16 
    2450    1558.7657    159846.35    71.787495    71.787496    35.815786          120    50928.683    51801.818   -17808.131    1724.9037   -5763.3168    47.739938    71.787495    62.169795    35.815786    28307.457   -308891.07 
    2460    1495.9219    159854.02    71.788644    71.788644    35.816359          120    18165.329    19410.265   -58906.745    1000.2871   -7046.6891     1883.093    71.788644     62.17079    35.816359   -7110.3837   -308758.09 
    2470    1534.2767    159861.71    71.789795    71.789796    35.816933          120    85043.895    87716.445    21370.543   -786.11289    233.78255   -2397.3605    71.789795    62.171787    35.816933    64710.294   -308834.48 
    2480    1528.2259    159869.43     71.79095    71.790951    35.817509          120    88201.806    90512.588    23888.369    690.36864   -1030.5054   -2502.9837     71.79095    62.172788    35.817509    67534.254   -308818.63 
    2490    1501.9893    159877.17     71.79211     71.79211    35.818088          120     19418.79    21111.728   -59852.422    1931.8702   -6525.4951    2731.5874     71.79211    62.173791    35.818088   -6440.6347   -308760.93 
    2500    1552.1771    159884.94    71.793272    71.793272    35.818667          120    45034.723    47805.404   -30333.847   -527.36654   -2517.5559     669.4816    71.793272    62.174798    35.818667    20835.427   -308861.98 
    2510    1482.0609    159892.72    71.794436    71.794437    35.819249          120    101683.13    104279.36    35436.529   -872.31041     602.5038   -3879.8677    71.794436    62.175806    35.819249    80466.341   -308713.57 
    2520    1557.4884    159900.53    71.795605    71.795606    35.819832          120    54935.736    57295.271   -19905.113    1152.8333   -3254.6192    372.69304    71.795605    62.176819    35.819832    30775.298   -308866.81 
    2530    1479.9222    159908.36    71.796777    71.796778    35.820416          120    14087.152    18218.495   -68729.345    495.65237   -4131.7978    4012.0846    71.796777    62.177833    35.820416   -12141.233   -308703.51 
    2540     1535.848     159916.2    71.797951    71.797952    35.821002          120    80849.312    83800.348    7397.3535   -1633.2142   -461.25859   -1966.0295    71.797951     62.17885    35.821002    57349.005   -308816.12 
    2550    1508.3213    159924.07    71.799129     71.79913     35.82159          120    92485.781    94489.082    21305.979   -1180.6241   -830.58743   -3348.8664    71.799129     62.17987     35.82159    69426.947   -308755.81 
    2560    1498.0134    159931.97     71.80031    71.800311    35.822179          120    21751.779    26554.868   -61231.317    650.13153     -3705.58    3003.7913     71.80031    62.180893    35.822179   -4308.2232   -308732.06 
    2570    1538.8663    159939.88    71.801494    71.801494     35.82277          120    39860.801    44483.794   -42638.535   -645.49342    -2502.285    1972.6159    71.801494    62.181918     35.82277     13902.02   -308813.59 
    2580    1475.6876    159947.81     71.80268    71.802681    35.823362          120    102521.59    103181.64    30465.075   -2833.1734    27.770915   -3917.1824     71.80268    62.182946    35.823362    78722.767    -308679.4 
    2590    1554.8156    159955.76     71.80387    71.803871    35.823955          120    61591.631    63989.728   -16442.497    -1218.729     -1806.59   -1207.8846     71.80387    62.183976    35.823955     36379.62   -308840.38 
    2600    1475.0106    159963.73    71.805063    71.805064     35.82455          120    13992.167    18893.001   -74834.802    724.64621   -4450.0477    3466.2396    71.805063     62.18501     35.82455   -13983.212   -308671.75 
    2610    1547.6033    159971.72    71.806259    71.806259    35.825147          120    78380.271    78845.848    541.54903   -1975.1056   -1546.9865   -865.30649    71.806259    62.186045    35.825147    52589.223   -308819.16 
    2620    1501.5286    159979.73    71.807457    71.807458    35.825745          120     97615.52    96416.761    25489.914   -3013.6582   -347.45665   -3030.5197    71.807457    62.187083    35.825745    73174.065   -308720.28 
    2630    1520.1606    159987.76    71.808659     71.80866    35.826345          120    28576.153    30752.802   -57548.265    236.76017   -4249.4688     1953.008    71.808659    62.188124    35.826345    593.56345   -308755.73 
    2640    1534.9719    159995.82    71.809864    71.809864    35.826945          120    38122.934    39359.484   -47646.618    481.17636   -4819.6006    2492.3922    71.809864    62.189167    35.826945    9945.2669    -308783.5 
    2650    1489.7599    160003.88    71.811071    71.811071    35.827548          120    103101.52    100147.89     33008.44   -2780.9124   -1446.4848   -1597.5483    71.811071    62.190212    35.827548    78752.619   -308686.43 
    2660     1559.998    160011.98    71.812282    71.812282    35.828152          120    69631.962    68595.264   -5943.1135   -1193.7303   -2642.9572    243.46866    71.812282    62.191261    35.828152    44094.704   -308828.68 
    2670    1474.5453    160020.09    71.813496    71.813496    35.828758          120    17160.353    18362.685   -71285.222    2003.4476   -5466.2719    3772.5129    71.813496    62.192312    35.828758   -11920.728   -308648.97 
    2680    1556.0121    160028.23    71.814712    71.814713    35.829365          120    75320.541    73003.796    1416.2469   -1071.8952   -3517.3102    1147.9317    71.814712    62.193366    35.829365    49913.528    -308814.7 
    2690    1495.2618    160036.38    71.815932    71.815933    35.829973          120    101492.02    98545.577    36796.824   -2097.3292   -2582.9648   -140.57074    71.815932    62.194422    35.829973    78944.806   -308685.07 
    2700    1532.2488    160044.56    71.817156    71.817157    35.830584          120    35542.876    36208.117   -44541.401    1481.1525   -3972.3835    3001.7953    71.817156    62.195482    35.830584    9069.8643   -308758.69 
    2710    1529.5911    160052.76    71.818383    71.818383    35.831196          120    35723.417    34445.567    -45161.23    497.46335   -3706.9753    3377.9257    71.818383    62.196545    35.831196     8335.918   -308749.98 
    2720    1511.0828    160060.98    71.819612    71.819613    35.831809          120    101660.43    97933.993    41051.475   -1990.7136   -3355.8786    826.69382    71.819612    62.197609    35.831809    80215.301   -308707.96 
    2730    1564.2006    160069.23    71.820846    71.820846    35.832425          120    75066.844    75266.323     10976.68   -125.63862   -3808.3294    1489.9409    71.820846    62.198678    35.832425    53769.949   -308814.71 
    2740    1496.7996     160077.5    71.822083    71.822083    35.833042          120    19233.053    19000.718   -62360.541    718.66531   -3180.2661    3770.7044    71.822083    62.199749    35.833042   -8042.2565   -308671.65 
    2750    1578.1625    160085.79    71.823323    71.823323     35.83366          120    71187.748    67196.779     5523.315   -1253.4827   -2850.8164    2103.4537    71.823323    62.200823     35.83366    47969.281    -308836.7 
    2760    1508.1222    160094.11    71.824566    71.824567    35.834281          120    102338.66    101722.26    51796.136   -916.47172   -3704.1436    222.30426    71.824566      62.2019    35.834281    85285.683   -308688.09 
    2770    1562.8289    160102.45    71.825814    71.825814    35.834903          120     41344.99    41574.829   -28620.731    58.776891   -3573.7437     2026.442    71.825814     62.20298    35.834903    18099.696      -308798 
    2780    1537.6762    160110.82    71.827065    71.827065    35.835527          120    34747.143    29526.983   -40530.462    -971.3598   -2253.0993    2551.7111    71.827065    62.204064    35.835527    7914.5544   -308742.82 
    2790    1531.2668    160119.21    71.828319     71.82832    35.836153          120    97741.908    96820.747    50353.276   -646.57295   -2472.5722   -223.98384    71.828319     62.20515    35.836153    81638.644   -308726.39 
    2800      1571.56    160127.62    71.829578    71.829578    35.836781          120    79466.603    81138.172    29059.449    118.41731   -3203.4355   -210.95806    71.829578     62.20624    35.836781    63221.408   -308806.31 
    2810    1507.5265    160136.07     71.83084    71.830841    35.837411          120    25021.371    17981.366   -51747.679   -809.60081   -2869.1059    1999.3638     71.83084    62.207333    35.837411   -2914.9804    -308670.8 
    2820     1582.792    160144.53    71.832106    71.832106    35.838042          120    67105.803     62378.96    8919.7682   -745.90157   -1749.3577     335.5175    71.832106    62.208429    35.838042    46134.844   -308823.52 
    2830    1513.0023    160153.02    71.833375    71.833376    35.838676          120    101257.85    105359.15    64703.807    500.49064   -1869.1479   -1531.4552    71.833375    62.209528    35.838676     90440.27   -308675.32 
    2840    1571.4958    160161.54    71.834649     71.83465    35.839311          120    48895.899    44832.842   -11760.192    -140.4983   -2848.8531    611.08426    71.834649    62.210632    35.839311     27322.85   -308793.62 
    2850    1532.4314    160170.09    71.835927    71.835928    35.839949          120    35053.281     23713.28   -36068.564   -987.57044   -2526.8372    1834.0762    71.835927    62.211738    35.839949    7565.9988   -308709.82 
    2860     1544.334    160178.66    71.837208    71.837209    35.840588          120    94022.977    95775.371    54407.917    411.67358   -1179.1011   -1554.0592    71.837208    62.212848    35.840588    81402.088   -308731.16 
    2870    1562.5454    160187.26    71.838494    71.838495     35.84123          120    84336.162    86722.413    44554.701    741.30732   -1588.6767   -1692.4555    71.838494    62.213961     35.84123    71871.092   -308766.27 
    2880    1509.1552    160195.89    71.839784    71.839785    35.841873          120    28954.576    16843.841   -38729.382   -624.78595    -2575.071    2309.8338    71.839784    62.215079    35.841873     2356.345   -308652.92 
    2890    1579.3887    160204.54    71.841078    71.841078    35.842518          120    63973.767    57674.174    9807.5987   -1.1167251   -1975.4728    282.88969    71.841078    62.216199    35.842518    43818.513   -308795.52 
    2900    1497.1057    160213.22    71.842375    71.842376    35.843166          120     104359.8    109048.93    71953.094    1554.5083   -1517.4025   -2823.4815    71.842375    62.217323    35.843166    95120.608   -308622.37 
    2910    1570.8188    160221.94    71.843678    71.843678    35.843816          120    55891.465    49708.937    5617.6472    376.59682   -1307.5842    748.85044    71.843678     62.21845    35.843816    37072.683    -308771.9 
    2920    1514.1996    160230.68    71.844984    71.844985    35.844467          120    33485.902    20368.261    -29302.41   -551.08074   -2024.4493    2596.2341    71.844984    62.219582    35.844467    8183.9176   -308651.47 
    2930    1545.3102    160239.45    71.846294    71.846295    35.845121          120    94334.593    95042.714    54842.019    1324.5897   -3111.2218     -1277.25    71.846294    62.220717    35.845121    81406.442   -308712.71 
    2940    1554.6092    160248.24    71.847609     71.84761    35.845777          120    92243.325    92190.282    55669.386    1571.3292   -1988.3996   -476.16636    71.847609    62.221855    35.845777    80034.331   -308728.39 
    2950     1523.024    160257.07    71.848929    71.848929    35.846436          120    31602.079    18088.452   -25447.247   -1078.4825   -608.33599    3027.6586    71.848929    62.222998    35.846436    8081.0948   -308659.23 
    2960    1588.6431    160265.93    71.850252    71.850253    35.847096          120    59719.312    52770.738    9541.6055    -318.3129   -3327.0591    691.73055    71.850252    62.224144    35.847096    40677.218   -308791.72 
    2970    1521.1012    160274.81     71.85158     71.85158    35.847758          120    107642.97    109555.83    74145.641    2246.1652   -3910.6158   -320.83721     71.85158    62.225294    35.847758    97114.814   -308647.61 
    2980    1603.6526    160283.73    71.852912    71.852913    35.848423          120    62216.613    54222.624    17314.343   -76.933064   -669.46774    2050.2446    71.852912    62.226448    35.848423    44584.527   -308815.17 
    2990    1533.7361    160292.67    71.854249    71.854249     35.84909          120    29393.352     16297.47   -26015.093   -2432.9017   -1197.7697    1179.9781    71.854249    62.227605     35.84909    6558.5762    -308667.4 
    3000    1589.1059    160301.64    71.855589    71.855589    35.849758          120    90952.044     89068.38    52048.097    1450.2863   -4125.5978   -114.38453    71.855589    62.228766    35.849758    77356.174   -308778.63 
    3010    1565.9913    160310.64    71.856934    71.856934    35.850429          120    97424.677    95197.663    60902.631    2463.0372    -2124.762    1108.9609    71.856934    62.229931    35.850429    84508.324   -308727.57 
    3020     1551.837    160319.67    71.858283    71.858284    35.851103          120    33749.514    20452.773   -19681.228   -1888.1332    218.74405    1172.6842    71.858283    62.231099    35.851103     11507.02   -308695.39 
    3030    1593.1572    160328.73    71.859636    71.859636    35.851778          120    53476.269    45023.101    5314.5426    -762.2731   -2568.2829    165.01147    71.859636    62.232271    35.851778    34604.638   -308778.13 
    3040    1526.3655    160337.81    71.860993    71.860993    35.852454          120    108022.59    108047.75    73421.723    3519.7648   -2825.2148    814.56173    71.860993    62.233446    35.852454    96497.356   -308636.86 
    3050    1601.9551    160346.93    71.862354    71.862355    35.853134          120    68451.831     60135.85    21649.867    1320.6054   -399.77443     1470.585    71.862354    62.234625    35.853134    50079.183   -308790.54 
    3060    1526.1714    160356.07     71.86372     71.86372    35.853815          120    27044.436    13849.832   -29353.816   -1858.5641   -1491.3926    1278.8349     71.86372    62.235808    35.853815    3846.8171   -308630.62 
    3070    1590.1345    160365.23    71.865089    71.865089    35.854498          120    85521.551     83429.35    45968.722    2008.7165   -2855.5697    1127.2818    71.865089    62.236993    35.854498    71639.874   -308760.05 
    3080    1554.2123    160374.42    71.866462    71.866462    35.855183          120    100367.64    98290.283     61541.53    3763.5174   -1313.5544     1719.866    71.866462    62.238182    35.855183     86733.15   -308682.12 
    3090    1566.0975    160383.64    71.867839    71.867839     35.85587          120    37036.325    24306.547   -20749.802    68.178577   -1300.8819    1925.0978    71.867839    62.239375     35.85587    13531.023    -308703.6 
    3100    1588.9586    160392.89    71.869219     71.86922    35.856559          120    46896.882    38773.563      -3932.7   -352.35351   -3163.7473    1699.7666    71.869219     62.24057    35.856559    27245.915   -308747.91 
    3110    1546.1789    160402.15    71.870603    71.870604    35.857249          120    104575.68    104602.09    69476.311    3131.5218   -1883.7761    1698.2003    71.870603    62.241769    35.857249    92884.695   -308655.58 
    3120    1616.2599    160411.44    71.871991    71.871992    35.857942          120    72206.615    64831.145    22801.868     2644.336   -1008.0579    1665.4593    71.871991    62.242971    35.857942    53279.876   -308797.29 
    3130    1542.0512    160420.76    71.873383    71.873384    35.858636          120    25124.667    12312.181   -36393.097   -507.51779   -3228.1817    1854.8603    71.873383    62.244176    35.858636     347.9171   -308640.48 
    3140    1616.7106     160430.1    71.874777    71.874778    35.859332          120    78235.019    74795.278    36715.591    569.43973   -2887.6637    1694.4081    71.874777    62.245384    35.859332    63248.629    -308791.5 
    3150    1569.3604    160439.46    71.876175    71.876176    35.860029          120    100356.85    98188.497    61605.537    2796.6733   -952.46063    1582.9539    71.876175    62.246594    35.860029     86716.96   -308690.13 
    3160     1594.652    160448.85    71.877577    71.877578    35.860729          120    39042.928    27656.754    -22020.02    1529.0944   -2295.6235    1436.8647    71.877577    62.247808    35.860729    14893.221   -308739.64 
    3170     1605.422    160458.25    71.878982    71.878982    35.861429          120    39742.604    31165.031   -15704.601   -497.93778    -3808.601    1946.9449    71.878982    62.249025    35.861429    18401.012   -308758.46 
    3180    1574.5813    160467.68    71.880389    71.880389    35.862131          120    99902.643    98870.904     62849.45    1288.0566   -1655.6386    1987.1871    71.880389    62.250243    35.862131    87207.666    -308690.9 
    3190    1633.6808    160477.13    71.881799      71.8818    35.862835          120    74075.354     68313.11    23522.893    2687.9617   -1336.4797     1314.724    71.881799    62.251465    35.862835    55303.786   -308810.27 
    3200    1563.1842    160486.59    71.883213    71.883214     35.86354          120    21214.401    10396.301   -44299.005    858.96879   -3645.3484    2243.0922    71.883213    62.252689     35.86354    -4229.434    -308661.1 
    3210    1637.6243    160496.08    71.884629    71.884629    35.864247          120    70718.457    66715.919    23007.997    165.05467   -2554.4361    2979.3732    71.884629    62.253915    35.864247    53480.791   -308812.14 
    3220    1574.5728    160505.58    71.886047    71.886048    35.864954          120    99866.279    98189.285    57144.795     2016.672   -939.09827    1818.5709    71.886047    62.255144    35.864954    85066.786   -308678.18 
    3230    1615.3898     160515.1    71.887469    71.887469    35.865664          120    39675.751    30584.062    -23896.93    2436.6033   -2791.7082    1987.6367    71.887469    62.256375    35.865664    15454.294   -308759.91 
    3240    1601.3766    160524.63    71.888892    71.888893    35.866374          120    33779.696    25192.682    -30039.88    261.42894   -3495.5448    3590.8033    71.888892    62.257608    35.866374    9644.1659   -308728.15 
    3250    1583.1573    160534.18    71.890318    71.890318    35.867085          120     96923.33    95308.196    49907.537    465.13607   -1636.1345    2539.4997    71.890318    62.258842    35.867085    80713.021   -308687.28 
    3260    1633.4857    160543.75    71.891746    71.891747    35.867798          120    77494.786    71611.911    21726.218    2114.5375   -1942.5177    1637.3099    71.891746    62.260079    35.867798    56944.305   -308788.06 
    3270    1562.2469    160553.34    71.893177    71.893177    35.868511          120    21166.041    8659.3798   -51794.765    1365.3203   -3804.3735    2465.1023    71.893177    62.261318    35.868511   -7323.1149   -308637.51 
    3280    1642.9858    160562.93    71.894609    71.894609    35.869226          120     66364.24    60932.404    5230.1156   -254.59709   -2895.3542    2717.4326    71.894609    62.262558    35.869226    44175.586   -308801.53 
    3290    1572.6786    160572.54    71.896043    71.896043    35.869941          120    101853.12    99199.565    48842.512    439.22474   -2387.0798     2039.482    71.896043      62.2638    35.869941    83298.398   -308652.15 
    3300    1627.7218    160582.17    71.897479     71.89748    35.870658          120    45398.902    33155.593   -25570.226    1430.0385   -3384.4918    1338.3981    71.897479    62.265044    35.870658    17661.423   -308763.45 
    3310    1595.6204     160591.8    71.898918    71.898918    35.871376          120    31084.167    19578.502   -44233.723    390.34251   -3260.1332    1735.8286    71.898918     62.26629    35.871376    2142.9823   -308693.87 
    3320    1599.6693    160601.45    71.900357    71.900357    35.872094          120     94279.04    93148.347    36207.347   -216.99828   -3051.4002    2396.7544    71.900357    62.267536    35.872094    74544.911   -308698.95 
    3330    1624.5477    160611.11    71.901798    71.901799    35.872813          120      82607.6    77155.893    18559.629    173.59706   -3319.7148    1879.4136    71.901798    62.268785    35.872813     59441.04   -308747.78 
    3340    1567.3637    160620.78    71.903242    71.903243    35.873533          120    23596.259    8183.9056   -58155.474    656.21125   -2709.6552    644.60284    71.903242    62.270035    35.873533     -8791.77    -308626.4 
    3350    1639.5539    160630.46    71.904686    71.904687    35.874254          120    60811.114    55480.254   -9251.4282    119.85402   -2513.3624     1647.258    71.904686    62.271286    35.874254     35679.98   -308773.26 
    3360    1558.1718    160640.15    71.906132    71.906133    35.874975          120    100985.53       103853    41221.229   -726.30977   -3825.3245     2893.186    71.906132    62.272538    35.874975     82019.92   -308601.57 
    3370    1629.3962    160649.85     71.90758    71.907581    35.875697          120    49672.568    40159.313   -27446.874   -506.54296   -2970.8054    901.47926     71.90758    62.273792    35.875697    20795.002   -308746.27 
    3380    1575.1312    160659.57    71.909029    71.909029     35.87642          120    27843.816    15318.525   -54522.198   -81.534429   -1571.3494   -284.69693    71.909029    62.275046     35.87642    -3786.619   -308631.14 
    3390    1600.4288    160669.28    71.910479    71.910479    35.877144          120    88471.693    92997.129     24774.43   -738.44216   -3411.1718    2863.0113    71.910479    62.276302    35.877144    68747.751   -308680.52 
    3400    1610.8728    160679.01     71.91193     71.91193    35.877868          120    83553.713    86678.095    15981.278   -1528.8783   -4011.3811    2778.1866     71.91193    62.277559    35.877868    62071.029   -308698.53 
    3410     1572.051    160688.75    71.913383    71.913383    35.878593          120    24259.027    11562.018   -60786.784   -1291.2496   -1714.5108   -1518.5758    71.913383    62.278817    35.878593    -8321.913   -308615.07 
    3420    1633.3662    160698.49    71.914836    71.914837    35.879318          120    53550.386    51168.721   -20398.455    -539.0618   -2007.4704    1.2168813    71.914836    62.280076    35.879318    28106.884   -308738.96 
    3430    1565.5399    160708.24     71.91629    71.916291    35.880043          120    97886.093    109314.24    35862.318   -971.00956   -4295.5983    4368.2574     71.91629    62.281335    35.880043    81020.885   -308595.03 
    3440    1636.4028       160718    71.917747    71.917747     35.88077          120    52779.737    49172.146   -24966.431   -1705.6582   -3119.6613    406.44782    71.917747    62.282596     35.88077    25661.817   -308739.04 
    3450    1574.1143    160727.77    71.919203    71.919204    35.881497          120    23923.318    12670.578   -59209.188   -1247.4543   -1407.2527   -3711.2999    71.919203    62.283858    35.881497   -7538.4305   -308606.97 
    3460    1618.0522    160737.54    71.920661    71.920661    35.882224          120    82377.285    91282.841    17922.747    -150.0665   -3865.3412    2895.0187    71.920661     62.28512    35.882224    63860.957   -308694.85 
    3470    1603.1781    160747.32    71.922119     71.92212    35.882951          120    86030.185    93660.865    19779.421   -248.35807   -4773.1376    4338.2063    71.922119    62.286383    35.882951    66490.157   -308660.94 
    3480     1583.195    160757.11    71.923579     71.92358     35.88368          120    26777.375     14248.64   -57346.018   -1277.2314   -1940.9195   -3157.3706    71.923579    62.287647     35.88368   -5440.0013    -308616.8 
    3490    1629.1082     160766.9     71.92504     71.92504    35.884408          120    47881.507    45582.265    -26291.86   -941.47987   -2608.6638   -1599.9426     71.92504    62.288912    35.884408    22390.637   -308708.77 
    3500     1562.366     160776.7    71.926501    71.926501    35.885137          120    96832.359    109540.41    38203.455    1086.3185   -5668.2605    6008.4458    71.926501    62.290177    35.885137    81525.409   -308567.81 
    3510    1635.7934    160786.51    71.927963    71.927964    35.885867          120    57735.353    54316.304   -15984.032    838.19735   -3265.5656    1860.6701    71.927963    62.291444    35.885867    32022.542   -308716.91 
    3520    1567.4192    160796.32    71.929427    71.929427    35.886597          120    22907.577    10157.099   -61299.215   -1770.0922   -1042.1932   -4221.7426    71.929427    62.292711    35.886597   -9411.5128   -308572.54 
    3530    1620.1615    160806.14     71.93089    71.930891    35.887327          120    77792.201    85450.174    16138.653    261.36851   -4452.3701    2824.3358     71.93089    62.293979    35.887327    59793.676   -308678.56 
    3540    1597.9256    160815.96    71.932355    71.932356    35.888058          120    87686.645    95641.533    28863.898    2985.3202   -4624.6436    5983.4023    71.932355    62.295248    35.888058    70730.692   -308628.88 
    3550    1593.8774     160825.8    71.933821    71.933822     35.88879          120    30056.078    17525.869   -53247.008    35.167819   -1185.4432   -1116.6506    71.933821    62.296517     35.88879   -1888.3536   -308617.48 
    3560    1626.8861    160835.63    71.935287    71.935288    35.889521          120    43524.693    38880.769    -31358.77   -1830.0752   -2355.6722    -1667.959    71.935287    62.297787    35.889521    17015.564   -308683.14 
    3570    1574.5442    160845.47    71.936754    71.936755    35.890253          120     93664.88    105118.86    42639.521    2828.4048   -3901.6095    4953.5669    71.936754    62.299057    35.890253    80474.419   -308571.02 
    3580     1644.306    160855.32    71.938222    71.938223    35.890985          120    61343.597    59154.802   -6597.0103    2861.2368   -1932.4964    3622.4897    71.938222    62.300329    35.890985    37967.129   -308712.43 
    3590    1567.6246    160865.17    71.939691    71.939692    35.891718          120    22520.607     8740.894   -63233.093   -1800.3625   -1862.2824   -886.51435    71.939691    62.301601    35.891718   -10657.197   -308551.01 
    3600     1634.669    160875.02     71.94116     71.94116    35.892451          120    72431.849    77099.989    14785.638    920.36053   -2443.0365    1574.2519     71.94116    62.302873    35.892451    54772.492   -308686.61 
    3610    1589.0262    160884.88    71.942629     71.94263    35.893184          120    88668.886     96714.82    38485.858    3957.2655   -1387.8045    4093.0835    71.942629    62.304145    35.893184    74623.188   -308589.26 
    3620    1601.3071    160894.75      71.9441    71.944101    35.893918          120    33725.781    21864.247   -46119.796    375.75722   -1927.4839    2776.6558      71.9441    62.305419    35.893918    3156.7439    -308611.9 
    3630    1618.0152    160904.62    71.945571    71.945572    35.894652          120    39381.365    32469.225   -34489.878   -481.76849   -2695.8412     1544.247    71.945571    62.306693    35.894652    12453.571    -308643.5 
    3640    1573.8394    160914.49    71.947043    71.947043    35.895386          120    91341.612    102230.02     46747.83    3101.9996   -648.44886    2331.6669    71.947043    62.307967    35.895386    80106.487   -308549.04 
    3650    1640.0112    160924.37    71.948515    71.948516    35.896121          120    65422.319    64843.072    5402.1912     1837.359   -770.20244    3690.9209    71.948515    62.309243    35.896121    45222.527   -308683.26 
    3660     1565.022    160934.26    71.949989    71.949989    35.896856          120    22141.599    8145.5534   -60871.775   -852.30604   -3188.3381    3989.8684    71.949989    62.310519    35.896856   -10194.874   -308524.72 
    3670    1641.2254    160944.15    71.951462    71.951463    35.897591          120    67858.893    72456.062    12092.958    1307.6417   -1873.3241    2354.2071    71.951462    62.311795    35.897591    50802.638   -308679.56 
    3680    1584.0542    160954.04    71.952936    71.952937    35.898326          120    89870.715     100007.3    46167.484    2179.0351    199.03874     2793.618    71.952936    62.313071    35.898326    78681.834   -308557.64 
    3690     1622.126    160963.94    71.954412    71.954412    35.899063          120    36867.249    27118.064   -36814.911   -733.13413    -1544.872    4548.8643    71.954412    62.314349    35.899063    9056.8004   -308633.11 
    3700    1615.0548    160973.84    71.955887    71.955888    35.899799          120     35783.35    28617.043   -38120.303   -615.94687   -3648.0851    3800.4248    71.955887    62.315627    35.899799      8760.03   -308615.48 
    3710    1595.3716    160983.75    71.957363    71.957364    35.900535          120    89916.955    100973.82    46447.351    1787.2963   -929.16202    2524.3926    71.957363    62.316905    35.900535    79112.709   -308570.96 
    3720    1647.9383    160993.66     71.95884    71.958841    35.901272          120    69784.805    71026.463     15430.32    630.63058    456.25868    3357.2038     71.95884    62.318184    35.901272    52080.529   -308676.78 
    3730    1576.8134    161003.58    71.960318    71.960318    35.902009          120    22499.098    8788.2091   -57003.288   -1628.9024   -2454.0102    4505.3398    71.960318    62.319464    35.902009   -8571.9934   -308526.88 
    3740    1656.5831     161013.5    71.961796    71.961796    35.902746          120    64667.155     66851.84    7567.3878    456.25392    -3004.056    3480.8579    71.961796    62.320744    35.902746    46362.128   -308688.87 
    3750    1589.4066    161023.42    71.963274    71.963274    35.903484          120    93781.768    101660.66    51368.985    1676.1197   -36.911981    2669.8223    71.963274    62.322024    35.903484     82270.47   -308546.36 
    3760    1639.8159    161033.36    71.964754    71.964754    35.904222          120    40884.725    32073.212   -25255.779   -797.55518   -86.864363    3697.8578    71.964754    62.323305    35.904222    15900.719   -308648.04 
    3770    1615.6877    161043.29    71.966233    71.966234    35.904961          120    31289.466    24158.103   -38667.533    -970.9592   -2991.6507    4620.5068    71.966233    62.324587    35.904961    5593.3451   -308594.67 
    3780    1615.9331    161053.23    71.967713    71.967714    35.905699          120    90688.798    96714.375    45852.273    1122.2683   -1867.9984    3438.1403    71.967713    62.325869    35.905699    77751.815   -308592.01 
    3790    1647.5342    161063.17    71.969195    71.969195    35.906438          120    75409.346    74717.133    26585.438    304.35672    137.08367    2867.5264    71.969195    62.327151    35.906438    58903.972   -308654.23 
    3800    1593.5774    161073.12    71.970677    71.970677    35.907177          120    19223.168    10351.945   -49217.933   -1681.9781   -1487.9608    3837.5354    71.970677    62.328435    35.907177   -6547.6068   -308539.26 
    3810     1663.555    161083.07    71.972158    71.972159    35.907917          120    59928.856    60450.396     3969.749   -77.138001   -2803.2512    4503.2774    71.972158    62.329718    35.907917    41449.667    -308681.2 
    3820     1592.333    161093.02    71.973641    71.973641    35.908656          120    97138.845    100847.42    55547.069    667.80611   -480.73105    3654.8212    71.973641    62.331002    35.908656    84511.111   -308530.48 
    3830    1653.6379    161102.99    71.975125    71.975125    35.909396          120    41832.483      36657.5   -13594.546   -720.44574    -254.9516    2477.3507    71.975125    62.332287    35.909396    21631.812   -308654.49 
    3840     1609.543    161112.95    71.976608    71.976609    35.910137          120    24452.139      20486.4   -38611.932   -1027.6447   -2341.0459    3388.7981    71.976608    62.333572    35.910137    2108.8688   -308560.84 
    3850     1622.208    161122.91    71.978092    71.978093    35.910877          120    88141.176    92723.253    42245.995   -33.797927   -1103.6386    4541.2653    71.978092    62.334857    35.910877    74370.141   -308584.32 
    3860    1639.3287    161132.88    71.979577    71.979577    35.911618          120    78352.982    79126.656    34240.849    823.19614    572.79431    3150.4484    71.979577    62.336143    35.911618    63906.829   -308616.93 
    3870      1591.19    161142.86    71.981062    71.981062    35.912359          120    17353.394    11053.338   -41743.615    91.893558   -1618.1174    1209.0898    71.981062    62.337429    35.912359   -4445.6273   -308514.49 
    3880    1655.0062    161152.83    71.982547    71.982548      35.9131          120    53439.218    54881.527   -1339.5944   -1064.4277   -2013.2224    3394.8497    71.982547    62.338715      35.9131    35660.384   -308643.74 
    3890    1588.7722    161162.81    71.984032    71.984033    35.913841          120    97111.101    103688.81    55497.531    391.99565    1385.3607    4460.0997    71.984032    62.340001    35.913841     85432.48   -308502.92 
    3900     1653.948    161172.79    71.985519    71.985519    35.914582          120    45938.474    42049.896   -4151.9017    2075.2518   -624.55628     1416.403    71.985519    62.341289    35.914582     27945.49   -308635.17 
    3910    1604.3597    161182.78    71.987005    71.987006    35.915324          120    21157.529    15304.132   -38457.266   -290.81486   -3243.9618    834.82319    71.987005    62.342576    35.915324    -665.2017   -308529.06 
    3920    1638.0886    161192.76    71.988492    71.988492    35.916065          120    84383.117     90450.79    37714.354    -1002.007    1022.7136    3763.1441    71.988492    62.343863    35.916065     70849.42   -308595.56 
    3930    1639.9769    161202.75    71.989979    71.989979    35.916807          120    82606.709    86019.977    39558.417    1630.8001    1298.5338    3442.0979    71.989979    62.345151    35.916807    69395.034   -308596.48 
    3940    1614.6632    161212.75    71.991466    71.991467     35.91755          120    20622.814    11870.505   -36846.897    1259.4182   -3375.5808    181.94481    71.991466    62.346439     35.91755   -1451.1928   -308540.57 
    3950    1675.2681    161222.74    71.992954    71.992954    35.918292          120    49358.651    47343.743   -5657.3944   -1558.3549   -1068.1557    1248.6471    71.992954    62.347727    35.918292    30348.333   -308662.59 
    3960    1610.1097    161232.73    71.994441    71.994442    35.919034          120    97620.826    104420.86    55940.505    118.77538    1925.2974    3885.4997    71.994441    62.349016    35.919034    85994.063   -308524.23 
    3970      1690.31    161242.73     71.99593     71.99593    35.919776          120    50863.062    49111.047     1162.649    1635.5778   -1507.9796    1948.0195     71.99593    62.350305    35.919776    33712.253   -308686.52 
    3980    1627.2188    161252.73    71.997418    71.997419    35.920519          120    18488.961     12237.57   -41306.261   -1531.1343   -2474.4037   -576.86494    71.997418    62.351594    35.920519   -3526.5767   -308552.73 
    3990    1675.4559    161262.73    71.998906    71.998906    35.921261          120    80729.428    83968.432    33617.712   -1171.8502    632.28938    2115.8842    71.998906    62.352882    35.921261    66105.191   -308649.44 
    4000    1660.9109    161272.73    72.000394    72.000395    35.922004          120    85484.576    89913.833     41960.49    1367.3186   -213.82587     3413.543    72.000394    62.354171    35.922004    72452.966   -308615.89 
    4010    1645.9245    161282.74    72.001883    72.001884    35.922747          120    20287.203    18498.346   -37083.716   -766.87316   -1779.7673    628.85291    72.001883    62.355461    35.922747     567.2778    -308582.2 
    4020    1685.1074    161292.74    72.003371    72.003372    35.923489          120     41723.95    42508.461   -13483.208   -2839.7592    267.49514    110.45984    72.003371    62.356749    35.923489    23583.068   -308660.75 
    4030    1625.8374    161302.74    72.004859     72.00486    35.924231          120    96865.322    101395.47    53192.654    565.42162   -325.63904    2819.3561    72.004859    62.358038    35.924231    83817.815    -308534.7 
    4040    1694.5587    161312.74    72.006348    72.006348    35.924974          120    54176.621    56384.467    3425.0495    1020.2565   -1354.9692    2696.7683    72.006348    62.359327    35.924974    37995.379   -308674.28 
    4050    1617.9444    161322.74    72.007836    72.007836    35.925716          120    12521.511    15177.746   -48423.127   -3273.1962     810.0707    70.019132    72.007836    62.360616    35.925716   -6907.9569   -308512.63 
    4060    1680.0053    161332.74    72.009323    72.009324    35.926458          120    75030.382    78772.565     24780.81   -1099.7219    184.81668    834.78397    72.009323    62.361904    35.926458    59527.919   -308638.23 
    4070    1637.0929    161342.73     72.01081    72.010811      35.9272          120    89261.286    90844.093    43091.406    2463.6489   -1850.5884    2498.6647     72.01081    62.363192      35.9272    74398.928   -308546.49 
    4080     1645.171    161352.73    72.012298    72.012298    35.927943          120    21787.598    24938.205   -38382.103   -948.67476   -182.80416    1628.1488    72.012298     62.36448    35.927943    2781.2333   -308560.35 
    4090    1665.6761    161362.72    72.013784    72.013785    35.928684          120     35120.78     40095.02   -25976.337   -2840.5626    1120.6363   -143.31906    72.013784    62.365767    35.928684    16413.155      -308600 
    4100     1619.872    161372.71     72.01527     72.01527    35.929425          120    97165.483    97865.509    48794.051    2084.6657   -1449.8955    563.34609     72.01527    62.367054    35.929425    81275.014   -308502.22 
    4110    1687.3015     161382.7    72.016756    72.016756    35.930167          120    60107.653    60813.273    5821.4407    2164.2767   -1556.2772    1998.3672    72.016756    62.368341    35.930167    42247.456   -308638.65 
    4120     1617.056    161392.69    72.018241    72.018242    35.930908          120    11161.391    16521.425   -56195.299   -2354.4711    560.13418    900.65669    72.018241    62.369627    35.930908   -9504.1611   -308490.22 
    4130    1688.4243    161402.66    72.019725    72.019726    35.931648          120    71512.898    73537.278    14068.162   -108.96304    2.4895728   -672.65198    72.019725    62.370912    35.931648    53039.446   -308635.41 
    4140    1642.7696    161412.64    72.021209     72.02121    35.932389          120    93699.576    91880.693    42405.274    2889.4932   -1570.4373    257.08156    72.021209    62.372197    35.932389    75995.181   -308537.24 
    4150    1672.1703    161422.61    72.022693    72.022693    35.933129          120    25664.375    29009.604    -37785.96   -20.937995   -1146.8686    1780.3887    72.022693    62.373482    35.933129    5629.3398   -308595.01 
    4160    1673.7846    161432.58    72.024175    72.024176    35.933868          120    30426.333    35298.216   -35696.217   -1788.7072    49.449797    669.48253    72.024175    62.374766    35.933868    10009.444   -308595.63 
    4170    1648.8813    161442.54    72.025656    72.025657    35.934607          120    97227.114    94966.669    42078.342    1184.4467   -178.32984   -1261.8366    72.025656    62.376049    35.934607    78090.708   -308540.64 
    4180    1699.6601     161452.5    72.027137    72.027138    35.935346          120    66123.729    65250.245     8543.448    1227.5225   -1483.3475    167.28189    72.027137    62.377331    35.935346    46639.141   -308642.97 
    4190    1629.4799    161462.46    72.028618    72.028618    35.936085          120    9688.5688    15376.285   -57859.538   -1382.7837   -1344.4949     2398.457    72.028618    62.378613    35.936085   -10931.561   -308495.11 
    4200    1699.7949     161472.4    72.030097    72.030097    35.936823          120    66943.872    67486.278    4116.3795   -844.34718    432.61264    -36.71261    72.030097    62.379894    35.936823    46182.177   -308637.81 
    4210     1638.984    161482.34    72.031575    72.031575     35.93756          120    97670.069    93997.879    40532.682    518.80023   -760.13319   -1909.0003    72.031575    62.381174     35.93756     77400.21    -308509.1 
    4220    1675.1925    161492.28    72.033052    72.033053    35.938297          120    29813.195    31849.894   -34231.876   -605.67473   -1352.9157    1433.0369    72.033052    62.382454    35.938297    9143.7377   -308581.53 
    4230    1662.6559    161502.21    72.034529    72.034529    35.939034          120    25263.154    28936.929   -42928.453   -1621.9383    247.40953    2379.9577    72.034529    62.383732    35.939034    3757.2102   -308552.39 
    4240    1648.1482    161512.13    72.036003    72.036004     35.93977          120     95910.42     93252.18    33514.601   -542.48598   -414.35164   -1446.4103    72.036003    62.385009     35.93977    74225.733   -308519.59 
    4250    1690.0075    161522.05    72.037477    72.037478    35.940505          120    71728.003    69645.271    10146.229   -451.62439   -1111.2699   -882.62615    72.037477    62.386286    35.940505    50506.501   -308603.19 
    4260    1631.0027    161531.96    72.038951    72.038951     35.94124          120    8981.8864    12195.519   -58727.875   -1187.8494    742.59955    2741.7807    72.038951    62.387562     35.94124   -12516.823   -308477.91 
    4270    1702.3811    161541.85    72.040422    72.040422    35.941974          120        61474    61767.535   -6666.6492   -775.52077    433.57461    1103.5798    72.040422    62.388836    35.941974    38858.295   -308623.06 
    4280    1638.0065    161551.74    72.041892    72.041893    35.942708          120    99260.631    96726.392    36306.338   -68.097548   -1907.7945   -1551.4851    72.041892    62.390109    35.942708     77431.12   -308486.45 
    4290    1691.6005    161561.63    72.043361    72.043362    35.943441          120    33698.792    34049.589   -30781.871    -345.0479    512.85976     918.8431    72.043361    62.391382    35.943441     12322.17   -308594.58 
    4300    1660.8737     161571.5    72.044829     72.04483    35.944173          120    20607.795    22418.035   -48537.135   -76.429816    2589.2646    2788.8637    72.044829    62.392653    35.944173   -1837.1017   -308528.38 
    4310    1662.4409    161581.36    72.046295    72.046295    35.944904          120    91885.316    90819.769    26348.723     949.8013   -1478.0364    204.19012    72.046295    62.393922    35.944904    69684.603   -308528.51 
    4320    1691.7812    161591.22     72.04776     72.04776    35.945635          120     75680.52    74266.095     13079.73    460.62455   -1154.5867   -436.60026     72.04776    62.395191    35.945635    54342.115    -308586.2 
    4330    1632.9561    161601.07    72.049223    72.049224    35.946365          120    9658.8292    11002.125   -57200.404     455.8986    4014.6467    2056.0912    72.049223    62.396459    35.946365   -12179.817    -308461.9 
    4340    1702.2341     161610.9    72.050685    72.050686    35.947095          120     54355.87    54485.349    -12416.02    1889.8033    1651.2485    2162.6378    72.050685    62.397724    35.947095    32141.733   -308602.92 
    4350    1629.2562    161620.73    72.052145    72.052146    35.947823          120    99604.808    96577.963    37069.285    1730.1804   -1765.6512    251.96834    72.052145    62.398989    35.947823    77750.685   -308448.59 
    4360    1690.7181    161630.55    72.053604    72.053605    35.948551          120    39276.786     38617.21   -25883.234     457.7958    2286.1021    927.08986    72.053604    62.400253    35.948551    17336.921   -308573.58 
    4370    1644.8758    161640.36    72.055062    72.055062    35.949278          120    15707.579    17098.688   -51876.338    1966.9863    4475.4091     2278.211    72.055062    62.401515    35.949278   -6356.6905   -308475.87 
    4380    1669.1393    161650.15    72.056517    72.056518    35.950004          120    88133.048    83798.653    24285.722    3218.8182    121.28352     1814.026    72.056517    62.402775    35.950004    65405.808   -308522.92 
    4390    1678.9759    161659.94    72.057971    72.057972     35.95073          120    81808.383    76843.708    17278.668    1350.6215   -88.325712    1223.2433    72.057971    62.404034     35.95073    58643.586   -308540.07 
    4400    1644.7187    161669.72    72.059424    72.059425    35.951455          120    11935.167    12231.771   -57216.478    984.44543    3390.7834    1255.2388    72.059424    62.405293    35.951455   -11016.513   -308466.13 
    4410    1709.1408    161679.48    72.060875    72.060875    35.952178          120    48418.613    46245.191   -17556.202    3897.3842    2358.9903     2037.692    72.060875    62.406549    35.952178    25702.534   -308596.13 
    4420    1640.8848    161689.23    72.062324    72.062324    35.952901          120     101986.5    94180.934    37645.593    3212.1599   -87.660441    2218.7362    72.062324    62.407804    35.952901    77937.675    -308451.2 
    4430    1719.7169    161698.98    72.063771    72.063772    35.953624          120    46552.014    42789.073   -21705.605    740.64545    1008.4546    998.30935    72.063771    62.409057    35.953624    22545.161   -308611.07 
    4440    1659.9699    161708.71    72.065217    72.065218    35.954345          120    12768.645    13683.855   -54986.969    3019.2912    2546.8754    905.82754    72.065217     62.41031    35.954345   -9511.4897    -308484.3 
    4450    1703.2523    161718.43    72.066661    72.066662    35.955065          120    85227.476    79133.059     20527.54    4494.4352    1127.9207    2609.6364    72.066661     62.41156    35.955065    61629.358   -308570.81 
    4460    1695.0603    161728.14    72.068103    72.068104    35.955785          120    87462.318    80376.416    22325.227    1936.6685    365.44294    1824.3904    72.068103    62.412809    35.955785    63387.987   -308550.33 
    4470    1672.7326    161737.84    72.069545    72.069545    35.956504          120    15671.252    15699.961   -53407.579    2073.0222    1518.2653    3.9066474    72.069545    62.414057    35.956504   -7345.4553   -308501.83 
    4480    1715.1237    161747.53    72.070984    72.070984    35.957222          120    43841.265     42456.55     -22790.5    4924.1067     1843.631    1943.2812    72.070984    62.415303    35.957222    21169.105   -308587.12 
    4490    1653.5566    161757.21    72.072421    72.072421    35.957939          120    101894.56    95490.893    40247.308    3353.4959    617.16053    3301.4817    72.072421    62.416548    35.957939    79210.921   -308456.67 
    4500    1717.1364    161766.88    72.073857    72.073858    35.958655          120      53445.2    49902.428    -13363.31     2170.445    816.89774    688.46614    72.073857    62.417792    35.958655    29994.773   -308586.36 
    4510    1648.2631    161776.54    72.075292    72.075292    35.959371          120    13644.205    14159.606   -57887.845    4673.6131    1416.2795    391.34899    72.075292    62.419034    35.959371   -10028.011   -308441.41 
    4520    1699.9132    161786.19    72.076724    72.076725    35.960086          120     79394.24      77728.5    18628.553    4300.3247    222.90753     3774.937    72.076724    62.420275    35.960086    58583.764   -308545.66 
    4530    1668.9777    161795.82    72.078155    72.078156      35.9608          120    89908.477    86324.175    30495.134    2695.0612     340.9666     3244.036    72.078155    62.421514      35.9608    68909.262   -308478.82 
    4540    1667.2968    161805.45    72.079585    72.079586    35.961513          120    22784.094    19746.166   -50686.202    3698.2314    761.57237    166.30489    72.079585    62.422753    35.961513   -2718.6475   -308472.66 
    4550    1696.2642    161815.07    72.081014    72.081014    35.962226          120    38797.464    39328.508   -28384.132    4224.8964   -282.24615    2447.5556    72.081014    62.423989    35.962226    16580.613   -308529.84 
    4560     1644.154    161824.68     72.08244     72.08244    35.962937          120    96381.859    97556.045    44039.461    3308.1281   -443.08431    4701.1169     72.08244    62.425225    35.962937    79325.788   -308419.22 
    4570    1710.5025    161834.28    72.083865    72.083866    35.963649          120    59321.081    55437.684   -5856.9966    2806.3635   -169.65445    2210.8787    72.083865    62.426459    35.963649     36300.59   -308553.63 
    4580       1641.2    161843.87    72.085289    72.085289    35.964359          120    15445.267    12110.033   -60788.651    3388.5589   -467.06478    1493.2147    72.085289    62.427692    35.964359   -11077.784   -308407.45 
    4590    1699.0214    161853.44     72.08671    72.086711    35.965068          120    70442.727    75430.232    16167.106    3340.3209   -620.97341    3963.1664     72.08671    62.428923    35.965068    54013.355   -308524.57 
    4600    1663.5805    161863.01    72.088131    72.088131    35.965777          120    89462.214    90798.329     37403.64    2563.7411    -988.6672    3328.8285    72.088131    62.430153    35.965777    72554.728   -308448.06 
    4610    1674.2529    161872.57     72.08955     72.08955    35.966485          120    28191.113    22327.013   -46184.394    2327.0249   -1620.4586    1531.8343     72.08955    62.431382    35.966485    1444.5772   -308467.75 
    4620    1690.5201    161882.11    72.090967    72.090968    35.967192          120    32394.673    35232.629   -33165.029    3120.9299   -540.77852     3076.612    72.090967    62.432609    35.967192    11487.424   -308498.96 
    4630    1653.3975    161891.65    72.092382    72.092383    35.967898          120      91044.5    97601.356    44436.574    2349.6497   -560.57608    3035.5409    72.092382    62.433835    35.967898    77694.143   -308418.75 
    4640    1712.7229    161901.18    72.093796    72.093797    35.968603          120    62448.337    60968.398    2645.2463    1061.1118   -2100.6327    1339.2145    72.093796     62.43506    35.968603     42020.66   -308539.13 
    4650    1641.2661    161910.69    72.095209     72.09521    35.969308          120    12610.572    10742.884   -59821.713    2362.5832   -1494.8581    2358.3692    72.095209    62.436283    35.969308   -12156.086   -308388.82 
    4660    1711.1022     161920.2    72.096619     72.09662    35.970012          120    63172.262    70195.543    11007.255    2383.0989     384.7334    3214.4059    72.096619    62.437505    35.970012     48125.02   -308530.27 
    4670    1657.6756    161929.69    72.098028    72.098029    35.970715          120    89019.735     93294.96    42528.808    500.46582   -642.82118    1499.0326    72.098028    62.438725    35.970715    74947.835   -308416.38 
    4680    1686.2866    161939.17    72.099436    72.099436    35.971417          120    27910.512    25817.856   -37713.554    814.14411   -1774.9429    1121.0745    72.099436    62.439944    35.971417    5338.2717   -308473.14 
    4690    1687.5716    161948.64    72.100841    72.100842    35.972118          120    25156.754    28496.866   -36535.047    2237.9635     513.1894    3448.0427    72.100841    62.441161    35.972118    5706.1907   -308473.12 
    4700    1660.7886     161958.1    72.102245    72.102245    35.972819          120    86924.635    93744.196    44624.677    930.10608    908.22383    2390.0067    72.102245    62.442376    35.972819    75097.836   -308414.69 
    4710    1714.5816    161967.55    72.103647    72.103648    35.973518          120    63396.244    65287.784    12428.282    194.84036   -421.36192    875.46656    72.103647    62.443591    35.973518    47037.437   -308523.31 
    4720    1647.3617    161976.99    72.105048    72.105048    35.974217          120    9503.3234    8832.7574   -57053.205    634.33207    359.39059    3087.9385    72.105048    62.444804    35.974217   -12905.708   -308381.25 
    4730    1722.0803    161986.41    72.106446    72.106447    35.974915          120    56997.908    62133.872    8041.9115    1034.5786    1439.3143    3159.3585    72.106446    62.446015    35.974915    42391.231   -308533.41 
    4740    1660.8661    161995.82    72.107843    72.107843    35.975611          120    88138.426    93850.038    48257.803     1033.025    357.81687    1725.9637    72.107843    62.447224    35.975611    76748.756   -308403.48 
    4750    1710.9186    162005.23    72.109238    72.109238    35.976307          120    30293.269     29574.51   -29713.094   -735.38123    473.81334     2420.961    72.109238    62.448433    35.976307    10051.562   -308504.16 
    4760    1690.8643    162014.62    72.110631    72.110632    35.977003          120    22200.529    21679.129   -39685.134   -679.51726    1471.5551    3425.4586    72.110631    62.449639    35.977003    1398.1747   -308459.62 
    4770    1690.6998       162024    72.112022    72.112023    35.977697          120    84044.269    90210.674    43193.024    1646.0628   -149.23648    2651.7085    72.112022    62.450844    35.977697    72482.656   -308455.59 
    4780    1730.0167    162033.36    72.113412    72.113413     35.97839          120    67335.419    70482.934    19914.422    413.97368   -268.12203    2057.1417    72.113412    62.452047     35.97839    52577.592   -308533.95 
    4790    1673.8614    162042.72      72.1148    72.114801    35.979083          120    12556.644    7633.0761   -54530.425   -2593.1497    1596.8445    3191.0525      72.1148     62.45325    35.979083   -11446.902   -308414.54 
    4800    1749.3719    162052.07    72.116186    72.116187    35.979774          120    54336.653    55118.718    1364.1988    564.74878   -354.97595    3292.2716    72.116186     62.45445    35.979774    36939.857   -308567.62 
    4810    1682.6224     162061.4     72.11757    72.117571    35.980465          120    90213.532    96826.574    49444.907    2576.8572   -2196.0646    2113.1846     72.11757    62.455649    35.980465    78828.338   -308426.19 
    4820    1740.6434    162070.72    72.118954    72.118954    35.981155          120    36802.411    33909.721   -22146.792    -1369.365    441.79501    2559.2772    72.118954    62.456846    35.981155    16188.447    -308544.1 
    4830    1703.0445    162080.03    72.120335    72.120335    35.981844          120    22006.632    15014.802   -43471.896   -1816.1389    748.41447    3555.8569    72.120335    62.458043    35.981844   -2150.1541   -308462.86 
    4840       1716.3    162089.33    72.121713    72.121714    35.982532          120    83416.155    88501.852    37356.106    2864.2914   -3063.4684    2516.6986    72.121713    62.459237    35.982532    69758.038   -308487.79 
    4850    1729.6663    162098.62    72.123091    72.123092    35.983219          120    73271.232    76751.073    24750.076    2036.7822   -2572.1759     2050.706    72.123091     62.46043    35.983219     58257.46   -308512.76 
    4860     1686.641     162107.9    72.124467    72.124468    35.983906          120    15556.189    6556.9339    -50744.78   -2400.2091    777.53943    3435.5232    72.124467    62.461622    35.983906   -9543.8857   -308421.11 
    4870    1743.3191    162117.16    72.125841    72.125842    35.984591          120    51399.516    49092.284   -6653.6005    600.44686   -1614.3745    3437.0992    72.125841    62.462811    35.984591      31279.4   -308536.43 
    4880    1674.3131    162126.41    72.127213    72.127214    35.985276          120    92623.826    100547.36    46321.157     3899.595   -4716.0493     2187.325    72.127213       62.464    35.985276    79830.782   -308390.76 
    4890    1736.6922    162135.66    72.128584    72.128585     35.98596          120    41772.013     38721.28   -16642.544    384.76867   -1748.6962    2920.5947    72.128584    62.465187     35.98596    21283.583   -308517.53 
    4900    1684.8033    162144.89    72.129953    72.129954    35.986643          120     18694.63    9538.3711   -46691.325   -1631.1094    86.733119    3806.9308    72.129953    62.466372    35.986643   -6152.7748   -308407.89 
    4910    1713.0775    162154.11     72.13132     72.13132    35.987324          120    80602.423    85370.217     28044.34    2381.0848   -3928.6976    2567.7767     72.13132    62.467556    35.987324    64672.327   -308463.65 
    4920    1718.3795    162163.31    72.132685    72.132685    35.988005          120    77393.348    81492.538    24951.711    3031.8444    -4012.023    2385.4727    72.132685    62.468738    35.988005    61279.199   -308471.68 
    4930    1688.7956    162172.51    72.134048    72.134049    35.988686          120    15495.193    6370.9021   -49160.402   -956.66306   -479.15615    2902.5255    72.134048    62.469919    35.988686   -9098.1024   -308407.72 
    4940    1743.6124    162181.69     72.13541     72.13541    35.989365          120     44942.04    40981.533   -16712.283   -864.75946   -1935.6418    2587.7894     72.13541    62.471098    35.989365     23070.43   -308518.25 
    4950    1685.8146    162190.86    72.136768    72.136769    35.990043          120    93139.243    98045.051    41025.854    2487.7221   -4307.7205    2375.5738    72.136768    62.472275    35.990043    77403.383   -308395.33 
    4960    1751.3178    162200.01    72.138126    72.138126     35.99072          120    45990.456     41679.65   -14222.853    1230.6987   -2145.5423    1970.7319    72.138126     62.47345     35.99072    24482.418    -308528.4 
    4970    1696.9171    162209.15    72.139481    72.139482    35.991396          120    14237.569    4751.1444   -53968.797   -2197.3527   -1081.6797    1964.2995    72.139481    62.474624    35.991396   -11660.028   -308413.01 
    4980    1739.5719    162218.28    72.140833    72.140834    35.992071          120    76431.523    76203.616    19911.933   -146.07486   -3718.8088    2311.0533    72.140833    62.475795    35.992071    57515.691   -308498.46 
    4990     1725.545    162227.39    72.142184    72.142185    35.992745          120    81529.114    80900.264    27256.743    1964.2805   -3753.1012    2020.3053    72.142184    62.476965    35.992745    63228.707   -308466.75 
    5000    1711.6533    162236.49    72.143533    72.143533    35.993418          120    17359.265    8790.8484   -51181.149   -891.18602   -1138.3592    1518.7293    72.143533    62.478133    35.993418   -8343.6787   -308435.41 
    5010    1752.9721    162245.57    72.144879    72.144879    35.994089          120    38730.906    33839.453   -26002.676   -2155.1206   -2219.3707    1977.9356    72.144879    62.479299    35.994089    15522.561   -308518.38 
    5020    1692.7237    162254.63    72.146222    72.146223     35.99476          120    92269.602    92584.425    41468.395    1060.0951    -5253.605     2029.455    72.146222    62.480462     35.99476    75440.807   -308390.72 
    5030    1763.7543    162263.69    72.147564    72.147565    35.995429          120    50629.853    46271.922   -9346.4076    746.30466   -3107.1457    1867.7645    72.147564    62.481624    35.995429    29185.122   -308534.95 
    5040    1693.4588    162272.73    72.148904    72.148905    35.996098          120    11464.164    5213.4577   -59896.272   -2302.4397   -33.616019    1681.5154    72.148904    62.482785    35.996098   -14406.216   -308386.95 
    5050    1748.0503    162281.75    72.150241    72.150242    35.996764          120    71022.677    70124.515    15203.641   -443.36636   -3918.1515    1450.7699    72.150241    62.483942    35.996764    52116.944   -308497.53 
    5060    1718.8076    162290.75    72.151576    72.151576     35.99743          120    83389.751    82879.867    32859.002    1349.7244   -6051.4659    1988.4893    72.151576    62.485098     35.99743    66376.207   -308433.81 
    5070    1718.7125    162299.75    72.152909     72.15291    35.998096          120     20069.48    14462.338   -48614.583   -1103.7987   -807.74064    1720.6584    72.152909    62.486253    35.998096   -4694.2548   -308431.23 
    5080     1741.844    162308.73    72.154239     72.15424    35.998759          120    33813.993    29264.207   -33794.752    -1554.423   -499.07988    1031.1125    72.154239    62.487405    35.998759    9761.1495   -308476.99 
    5090    1696.1712    162317.69    72.155567    72.155568    35.999422          120    90233.086    91058.289    40041.213    1149.6087   -5947.0914    1960.6001    72.155567    62.488555    35.999422    73777.529   -308379.55 
    5100    1757.0491    162326.64    72.156894    72.156894    36.000084          120    55130.572    52494.818    -3122.392    213.29252   -3408.2783    2007.5931    72.156894    62.489704    36.000084    34834.333   -308503.06 
    5110    1683.3526    162335.58    72.158218    72.158218    36.000744          120    11693.996    2952.3023    -63026.36   -2004.9535    920.14528    998.45504    72.158218     62.49085    36.000744   -16126.687   -308348.33 
    5120    1750.9222    162344.49    72.159539    72.159539    36.001403          120    66835.583    64479.799    6763.2408   -18.457572   -2824.4386    2500.4676    72.159539    62.491994    36.001403    46026.208   -308485.61 
    5130    1698.6337     162353.4    72.160858    72.160858    36.002061          120    85137.435    86724.354    34263.625    1151.2231   -4030.6361    2416.2863    72.160858    62.493137    36.002061    68708.471   -308374.65 
    5140     1724.098    162362.29    72.162175    72.162176    36.002719          120    24388.397    16335.868    -44899.54   -1291.1182   -45.471375      1054.82    72.162175    62.494277    36.002719   -1391.7586   -308424.98 
    5150    1728.6332    162371.16     72.16349     72.16349    36.003374          120    30562.025    21226.721    -42364.68   -2103.6643   -235.48235    2751.2434     72.16349    62.495416    36.003374    3141.3554   -308431.53 
    5160    1702.4877    162380.02    72.164801    72.164802    36.004029          120    88230.443    89871.457    34172.982    863.37467   -2491.0161    3355.2881    72.164801    62.496552    36.004029    70758.294   -308374.58 
    5170    1760.2648    162388.86    72.166111    72.166112    36.004682          120    59096.574    57322.475     77.44053    348.06937   -1141.9871     785.5777    72.166111    62.497686    36.004682    38832.163   -308491.03 
    5180    1698.3836    162397.69    72.167419     72.16742    36.005335          120    12046.704   -908.99783   -65945.434    -2546.813   -388.61325    1136.9759    72.167419    62.498819    36.005335   -18269.242   -308359.81 
    5190    1769.7385    162406.49    72.168724    72.168724    36.005986          120    62718.987    57555.821   -3270.5635   -617.62775   -1501.8554    3790.7057    72.168724    62.499949    36.005986    39001.415   -308504.58 
    5200    1716.4334    162415.29    72.170026    72.170027    36.006635          120    86962.641    89509.224    32191.414    1688.7644   -1260.1744    1350.9918    72.170026    62.501077    36.006635    69554.426   -308390.75 
    5210    1754.2739    162424.07    72.171326    72.171327    36.007284          120    28379.827    20804.085   -43301.892   -908.26003    -1238.191   -604.60546    72.171326    62.502203    36.007284    1960.6732   -308466.49 
    5220    1736.8437    162432.83    72.172624    72.172625    36.007932          120    27081.252    15812.118   -49824.635   -2227.9381   -2088.1101    2085.1644    72.172624    62.503327    36.007932   -2310.4217   -308428.06 
    5230     1726.172    162441.57    72.173919    72.173919    36.008578          120    87969.788    87477.868    27741.102    1794.1459     -1741.66    2189.8464    72.173919    62.504448    36.008578    67729.586   -308403.44 
    5240    1759.7921     162450.3    72.175212    72.175212    36.009223          120    65791.308     64640.61    2323.3392    2000.6225   -1127.0758    47.973527    72.175212    62.505568    36.009223    44251.752   -308470.67 
    5250    1699.7915    162459.02    72.176503    72.176503    36.009867          120    11555.125    2492.3987   -65676.271   -1539.5042   -1889.6715    617.66921    72.176503    62.506685    36.009867   -17209.582   -308344.32 
    5260     1765.581    162467.71     72.17779    72.177791    36.010509          120    57808.958     53769.31   -10145.732   -48.215164   -2608.2664    2467.3599     72.17779    62.507801    36.010509    33810.845   -308478.02 
    5270    1704.2852    162476.39    72.179076    72.179077    36.011151          120    92546.412    92977.636    31444.493    3696.8579   -1878.3791    1762.5339    72.179076    62.508914    36.011151    72322.847   -308348.45 
    5280     1751.057    162485.06     72.18036    72.180361    36.011791          120     33071.73    28929.647    -38066.42     1328.945   -1115.0328    916.56365     72.18036    62.510026    36.011791    7978.3189   -308442.99 
    5290    1726.9613    162493.72    72.181641    72.181642    36.012431          120    19221.249    15276.342   -52099.351   -1169.4237   -2048.9117     1968.953    72.181641    62.511136    36.012431   -5867.2534   -308390.29 
    5300    1728.8905    162502.35     72.18292     72.18292    36.013068          120    85531.911    86042.832    24412.394    2513.0017   -2845.5426    2819.6113     72.18292    62.512243    36.013068    65329.046   -308391.57 
    5310    1756.7437    162510.98    72.184197    72.184197    36.013705          120    72051.421    71247.227      6879.62    3405.3948   -1429.9299    2102.1072    72.184197    62.513349    36.013705    50059.423   -308446.69 
    5320    1708.8699    162519.59    72.185472    72.185472    36.014342          120    9013.7665    6685.8751   -62792.486   -604.06185   -427.46725    2172.9795    72.185472    62.514453    36.014342   -15697.615   -308345.01 
    5330    1772.1013    162528.18    72.186744    72.186744    36.014976          120    49433.848    49723.612   -13156.228   -125.02933   -2333.1792     3028.175    72.186744    62.515555    36.014976    28667.078   -308473.94 
    5340    1708.9944    162536.76    72.188014    72.188014     36.01561          120    93793.543    94435.107    34029.467    3488.0566   -2446.1738    2415.2748    72.188014    62.516654     36.01561    74086.039   -308340.52 
    5350    1767.9495    162545.33    72.189282    72.189283    36.016243          120    37298.012    36557.276   -31912.907    861.64405    164.30634    2927.9586    72.189282    62.517753    36.016243    13980.794   -308460.13 
    5360     1726.709    162553.88    72.190548    72.190549    36.016874          120    13594.991    13676.953   -52984.319   -1634.2114   -654.07133    3878.2279    72.190548    62.518849    36.016874   -8570.7915   -308372.53 
    5370    1746.1513    162562.41    72.191812    72.191812    36.017505          120    81200.811    82159.348    24263.736    1626.8242   -2424.9464    2436.4988    72.191812    62.519943    36.017505    62541.298   -308409.91 
    5380    1762.5068    162570.94    72.193073    72.193074    36.018134          120    76303.024    76955.657    13888.113    1982.1468   -715.00291    1855.5488    72.193073    62.521036    36.018134    55715.598   -308441.15 
    5390     1722.386    162579.45    72.194334    72.194334    36.018763          120     10456.36    10583.236   -59785.597   -1313.6136    183.50066    4290.8857    72.194334    62.522128    36.018763   -12915.333   -308355.74 
    5400    1785.6316    162587.95    72.195591    72.195592     36.01939          120    43353.152     44052.64   -16967.222   -226.95884   -1706.8023     3589.528    72.195591    62.523217     36.01939    23479.523   -308484.08 
    5410    1720.1069    162596.43    72.196846    72.196847    36.020017          120    92862.647    94545.331    37565.015    2031.6703   -1774.3098    999.10905    72.196846    62.524304    36.020017    74990.997   -308345.47 
    5420    1785.5546     162604.9      72.1981    72.198101    36.020642          120    42443.941    42496.518   -25129.675   -411.34396   -423.82558    2649.7226      72.1981     62.52539    36.020642    19936.928   -308478.95 
    5430    1729.3192    162613.36    72.199352    72.199353    36.021267          120    11020.764    10712.709   -57298.942   -1159.9411   -1360.3557    4277.0756    72.199352    62.526474    36.021267   -11855.156   -308360.17 
    5440    1763.6555     162621.8    72.200601    72.200602     36.02189          120    75421.225     77960.05    21397.209    1205.8793   -2530.0744    2024.0937    72.200601    62.527556     36.02189    58259.495   -308428.94 
    5450    1751.9912    162630.23    72.201849    72.201849    36.022512          120    78864.561    80006.868    20192.185    440.62401   -1498.4492     1327.528    72.201849    62.528636    36.022512    59687.871   -308402.86 
    5460    1729.1385    162638.65    72.203095    72.203095    36.023134          120    13515.843    11460.208   -58062.587   -1956.1646    -1402.915    3202.6554    72.203095    62.529715    36.023134   -11028.846   -308353.51 
    5470    1772.1096    162647.05    72.204338    72.204339    36.023754          120    36658.309     38178.33   -23635.482    152.56842   -2957.0936    2772.7706    72.204338    62.530792    36.023754    17067.053   -308440.61 
    5480    1708.4809    162655.44    72.205579     72.20558    36.024373          120    90347.669    93392.821    38386.603    1084.6465   -2403.9947    1416.9745    72.205579    62.531867    36.024373    74042.364   -308306.51 
    5490    1779.5277    162663.82    72.206819    72.206819    36.024992          120    46473.063    45096.897   -18048.461   -2007.8466   -1261.6828    1741.1756    72.206819     62.53294    36.024992    24507.166   -308451.21 
    5500    1711.8632    162672.18    72.208056    72.208057    36.025609          120    8043.6906    6026.3949   -59847.011   -1196.6918   -3014.7903    2443.7337    72.208056    62.534012    36.025609   -15258.975   -308308.84 
    5510    1764.6806    162680.52    72.209291    72.209292    36.026225          120    69086.524    71852.402    16313.833     1298.579   -2667.1756    1587.5316    72.209291    62.535081    36.026225    52417.586   -308415.93 
    5520    1741.8617    162688.86    72.210524    72.210525    36.026841          120    79088.129    81305.109    25878.911   -1047.9988   -107.48006    976.66408    72.210524    62.536149    36.026841    62090.716   -308365.62 
    5530    1738.4427    162697.18    72.211756    72.211756    36.027455          120    14956.472    11390.656   -52680.536   -2334.3571   -2341.8872    1497.9499    72.211756    62.537216    36.027455   -8777.8023   -308356.06 
    5540    1766.4273    162705.49    72.212985    72.212985    36.028068          120    30781.396    30259.513   -30013.312    1377.4954    -3168.382    1540.8636    72.212985     62.53828    36.028068    10342.532   -308411.84 
    5550    1719.6779    162713.78    72.214211    72.214211     36.02868          120     86255.69    90813.522    40339.381   -29.723924    941.93923    1392.0442    72.214211    62.539342     36.02868    72469.531   -308312.39 
    5560    1777.4287    162722.06    72.215436    72.215436    36.029291          120    48869.051    49205.516   -7755.4001    -3137.967   -202.93482    650.19456    72.215436    62.540403    36.029291    30106.389   -308429.98 
    5570     1710.855    162730.33    72.216659    72.216659    36.029901          120    7312.7136     3924.368    -61219.99    625.77635   -3641.5124    1171.5457    72.216659    62.541462    36.029901    -16660.97   -308290.15 
    5580    1770.0357    162738.58    72.217879     72.21788     36.03051          120    63449.633    66160.627    14117.634    1684.5119    291.84864    2261.2376    72.217879    62.542519     36.03051    47909.298   -308410.37 
    5590    1731.0448    162746.81    72.219098    72.219098    36.031118          120    79791.216    84331.421     35743.24   -2931.4324    1806.4746     1366.659    72.219098    62.543574    36.031118    66621.959   -308326.86 
    5600    1748.0844    162755.04    72.220315    72.220316    36.031725          120    18424.514    17330.506   -47240.985   -1574.0643   -2626.5041    400.08148    72.220315    62.544628    36.031725   -3828.6552   -308359.45 
    5610    1763.4439    162763.26     72.22153    72.221531    36.032332          120     26693.79    26437.872   -34562.786    3421.4116   -1189.8669    2264.8683     72.22153     62.54568    36.032332    6189.6254    -308388.7 
    5620    1728.8766    162771.46    72.222743    72.222743    36.032937          120    84566.768    89181.355    43249.528   -662.78958    2008.0712    2555.2857    72.222743    62.546731    36.032937     72332.55   -308314.26 
    5630    1787.7258    162779.65    72.223954    72.223955    36.033541          120    54248.284    56624.931   -901.52507   -2790.1984   -791.71445    62.947882    72.223954     62.54778    36.033541     36657.23   -308433.72 
    5640    1723.0765    162787.83    72.225164    72.225165    36.034145          120    6720.1358     5883.367   -62702.805     2950.342    -1762.552    815.50085    72.225164    62.548828    36.034145   -16699.767    -308297.4 
    5650    1785.6721    162795.99    72.226372    72.226372    36.034747          120    59315.822    61438.155    9230.8971    2609.3898     1063.644    2852.2625    72.226372    62.549873    36.034747    43328.291   -308424.59 
    5660    1742.4425    162804.15    72.227577    72.227578    36.035349          120    84802.017    87609.789    36755.777   -1730.4614   -223.50868    853.72487    72.227577    62.550918    36.035349    69722.528   -308332.08 
    5670    1766.5872    162812.29    72.228782    72.228783     36.03595          120    23334.656    23021.598   -44010.043    772.35785    -1367.906   -1079.2014    72.228782    62.551961     36.03595    782.07041   -308379.83 
    5680    1766.7973    162820.42    72.229984    72.229985     36.03655          120    22532.067    21953.602   -39761.332    3985.1446    728.55824    1321.9352    72.229984    62.553002     36.03655     1574.779   -308378.08 
    5690    1744.9746    162828.54    72.231185    72.231185    36.037148          120    86318.569    87055.794    36681.505    585.08089   -415.99697    2026.3389    72.231185    62.554041    36.037148    70018.623   -308330.09 
    5700    1790.9059    162836.65    72.232384    72.232384    36.037747          120    62590.813    61966.008    1967.1984   -696.86508   -1553.1408   -451.36219    72.232384     62.55508    36.037747    42174.673    -308423.2 
    5710     1726.422    162844.75    72.233581    72.233582    36.038344          120    6834.3066    5347.9415   -62738.069    2376.4159    631.22938   -1220.2035    72.233581    62.556117    36.038344    -16851.94   -308287.76 
    5720    1795.0957    162852.83    72.234776    72.234777     36.03894          120    56780.057    55657.593    -426.8347    2424.6773    89.506231    1416.3232    72.234776    62.557152     36.03894    37336.939    -308427.3 
    5730    1736.0482     162860.9     72.23597     72.23597    36.039536          120     90773.26    88255.444    35346.648   -326.70162     -2304.14     1944.771     72.23597    62.558185    36.039536    71458.451   -308302.45 
    5740    1778.0595    162868.97    72.237162    72.237163    36.040131          120    28802.728    26321.046   -39931.435    49.695629   -498.44543   -920.09752    72.237162    62.559218    36.040131    5064.1129    -308387.4 
    5750    1762.5894    162877.02    72.238352    72.238353    36.040724          120    18086.493    17856.807   -47768.575    2111.8822    939.67281   -304.89951    72.238352    62.560249    36.040724   -3941.7584   -308353.12 
    5760    1753.5268    162885.05     72.23954    72.239541    36.041317          120    85404.753    82644.333    30559.978    694.70889   -1922.4293    3258.6244     72.23954    62.561278    36.041317    66203.021   -308331.97 
    5770    1790.8472    162893.08    72.240727    72.240728    36.041909          120    68327.082    63659.834     6508.775   -959.80609   -2130.0448    1831.0042    72.240727    62.562305    36.041909     46165.23    -308406.8 
    5780     1731.862     162901.1    72.241912    72.241913    36.042501          120    5912.8012    5706.6384   -64510.262   -77.080988    590.27799   -1115.5945    72.241912    62.563332    36.042501   -17630.274    -308282.8 
    5790    1796.0749     162909.1    72.243095    72.243096    36.043091          120    49508.519    50278.114   -8828.2474    935.45653   -706.46476    2730.7223    72.243095    62.564356    36.043091    30319.462   -308413.94 
    5800    1728.5037    162917.09    72.244276    72.244277     36.04368          120    91471.646    86713.343    36711.536   -451.31913    -3098.282    4588.1716    72.244276    62.565379     36.04368    71632.175   -308271.71 
    5810    1779.8875    162925.07    72.245456    72.245456    36.044268          120    33204.396    29627.226    -34640.55   -1390.9752   -795.50731    88.352436    72.245456    62.566401    36.044268    9397.0239   -308376.33 
    5820    1739.9764    162933.04    72.246634    72.246634    36.044856          120    12082.691     15508.61   -52604.271   -365.36473    539.34033    922.35855    72.246634    62.567421    36.044856   -8337.6565   -308291.78 
    5830    1752.6748    162940.99    72.247809     72.24781    36.045442          120    80287.865    79877.352    27986.186     385.9047    -3326.428     5117.275    72.247809    62.568439    36.045442    62717.134   -308315.61 
    5840    1771.5378    162948.94    72.248983    72.248984    36.046028          120    72985.865    67851.015    13341.478   -53.154755    -3041.965    2264.9656    72.248983    62.569456    36.046028    51392.786   -308352.32 
    5850    1730.1632    162956.87    72.250156    72.250157    36.046614          120    7558.3647    8269.8108   -61811.114   -1190.6883    1538.6957   -672.46463    72.250156    62.570471    36.046614   -15327.646   -308264.26 
    5860    1795.8371     162964.8    72.251327    72.251327    36.047198          120    42709.324    46771.265   -14007.575   -27.633028   -1543.1814    3280.5887    72.251327    62.571485    36.047198    25157.671   -308397.66 
    5870    1735.6073    162972.71    72.252496    72.252496    36.047781          120    91078.716    89930.861    39157.688    1551.6458   -5099.3657    3594.8918    72.252496    62.572497    36.047781    73389.088   -308269.93 
    5880    1801.0471    162980.61    72.253664    72.253664    36.048363          120    37849.116    36141.189   -26786.306   -17.207019    345.49986   -683.27251    72.253664    62.573509    36.048363    15734.666   -308403.17 
    5890    1757.9696     162988.5     72.25483    72.254831    36.048945          120    8637.4132    13121.183   -55266.472   -1046.2556    2442.9875    634.26546     72.25483    62.574519    36.048945   -11169.292   -308311.16 
    5900    1788.1167    162996.38    72.255994    72.255995    36.049526          120    75023.337    79334.566    23872.551    1479.6662   -4570.1218     3783.538    72.255994    62.575527    36.049526    59410.151   -308371.11 
    5910    1788.3357    163004.25    72.257157    72.257158    36.050106          120    74349.162     75222.64    18938.392    1408.6125   -3275.7003    929.81365    72.257157    62.576534    36.050106    56170.065   -308369.17 
    5920      1761.79    163012.11    72.258319    72.258319    36.050686          120    8075.4309    10316.164   -57939.443   -1113.3119    4478.3105   -1373.0434    72.258319     62.57754    36.050686   -13182.616   -308312.48 
    5930    1805.6299    163019.96    72.259478    72.259479    36.051265          120    36055.146    42488.485   -20525.043   -19.612076   -423.25151    2437.6536    72.259478    62.578545    36.051265    19339.529    -308401.7 
    5940    1744.5441     163027.8    72.260636    72.260637    36.051842          120    88296.692    93506.689    37713.256    2083.1666   -5706.0831     2884.705    72.260636    62.579547    36.051842    73172.212   -308273.24 
    5950    1805.1553    163035.63    72.261794    72.261794     36.05242          120    40253.253    43013.291   -21675.324    168.92216    885.92379   -736.53415    72.261794     62.58055     36.05242    20530.407   -308397.04 
    5960    1746.4624    163043.45    72.262949    72.262949    36.052996          120    5584.6875    9764.5827   -58528.348    -1523.726    3672.0067    436.73244    72.262949     62.58155    36.052996   -14393.026   -308274.05 
    5970    1785.1396    163051.26    72.264102    72.264103    36.053571          120    68881.655    76015.322    17202.743     1141.348   -4736.7004    3388.8623    72.264102    62.582549    36.053571     54033.24   -308351.82 
    5980    1774.9032    163059.05    72.265254    72.265255    36.054146          120    75313.747      81938.3    20123.163    1661.0544   -4772.5645    1321.3241    72.265254    62.583547    36.054146     59125.07   -308328.19 
    5990    1760.8817    163066.85    72.266405    72.266406     36.05472          120    10328.517    12929.411   -56963.117   -1018.0495    3118.4922   -228.24881    72.266405    62.584543     36.05472   -11235.063   -308297.13 
    6000    1803.1155    163074.62    72.267554    72.267554    36.055293          120    30645.762    35376.291   -28437.055   -393.52336   -1096.9745    2368.4757    72.267554    62.585538    36.055293    12528.333   -308382.04 
    6010    1757.1604    163082.39    72.268701    72.268701    36.055866          120    85911.769    94219.376    34321.777    1949.2238   -7141.1346    2749.9046    72.268701    62.586531    36.055866    71484.307   -308283.88 
    6020    1822.6784    163090.14    72.269847    72.269847    36.056437          120    44735.063    49128.485   -17961.806    450.61596   -1096.8698    681.94502    72.269847    62.587524    36.056437     25300.58   -308417.23 
    6030    1768.8701    163097.89    72.270991    72.270992    36.057008          120    4055.3044     5521.391   -61921.695   -532.07683    2384.5552     571.5894    72.270991    62.588515    36.057008   -17448.333   -308302.91 
    6040    1822.9694    163105.62    72.272133    72.272134    36.057578          120    64751.508    70343.604    9695.7956    1208.7518   -5136.9518    2204.8221    72.272133    62.589504    36.057578    48263.636   -308412.19 
    6050    1798.0494    163113.35    72.273274    72.273275    36.058147          120    79490.663     85050.13    21370.828    1050.1823   -5133.3703    1903.8487    72.273274    62.590492    36.058147     61970.54    -308357.9 
    6060     1800.351    163121.07    72.274414    72.274414    36.058716          120    13358.032    13766.859   -53296.954   -265.33624    2314.3617   -38.600287    72.274414    62.591479    36.058716   -8724.0209   -308360.67 
    6070    1823.7885    163128.77    72.275551    72.275552    36.059284          120    25323.393    28203.444   -34645.982    568.11437   -453.12832    45.776839    72.275551    62.592464    36.059284    6293.6186   -308407.39 
    6080    1774.3102    163136.46    72.276687    72.276688     36.05985          120    87497.199    92175.375    28974.742    894.20246   -5634.1355    1708.1795    72.276687    62.593448     36.05985    69549.105   -308302.76 
    6090    1832.9761    163144.14    72.277822    72.277823    36.060416          120    52247.492    52116.108   -14076.981   -175.62533   -842.49578    366.93218    72.277822    62.594431    36.060416     30095.54    -308422.7 
    6100    1759.7168    163151.82    72.278955    72.278956    36.060982          120    1155.4651     2227.706   -61448.754   -234.74224    2984.8946   -1085.9729    72.278955    62.595412    36.060982   -19355.194   -308269.43 
    6110    1815.0077    163159.48    72.280086    72.280087    36.061546          120    60886.601    65278.543    1755.2818   -17.014588   -2557.9798    831.29306    72.280086    62.596392    36.061546    42640.142    -308382.5 
    6120    1772.0061    163167.13    72.281216    72.281216     36.06211          120    86509.869    86397.908    20075.752    552.73553   -2936.4123    1225.9244    72.281216     62.59737     36.06211    64327.843   -308291.19 
    6130     1784.283    163174.77    72.282345    72.282345    36.062673          120    17960.197    15853.362   -48388.873    -949.2193    2312.6729   -566.74356    72.282345    62.598347    36.062673   -4858.4381   -308315.25 
    6140    1790.4279     163182.4    72.283471    72.283472    36.063235          120    19020.109    23422.236   -39380.875   -2337.3311    752.06094   -106.70571    72.283471    62.599323    36.063235      1020.49   -308326.61 
    6150    1761.0174    163190.02    72.284596    72.284597    36.063796          120    88489.426     90022.91    23807.229    889.57648   -2579.5107    1498.0068    72.284596    62.600297    36.063796    67439.855   -308263.54 
    6160    1811.7401    163197.63     72.28572     72.28572    36.064357          120    60225.126    55912.584   -9111.3482    951.29857    -184.9749    682.28658     72.28572     62.60127    36.064357    35675.454   -308366.79 
    6170    1748.6978    163205.23    72.286842    72.286843    36.064917          120    564.84528    1124.9638   -60870.982   -3581.1548     2096.728    170.59647    72.286842    62.602243    36.064917   -19727.058   -308234.24 
    6180    1817.2453    163212.82    72.287963    72.287963    36.065476          120    55800.473    61018.399   -5270.1515   -1706.0466    -1099.696    819.94996    72.287963    62.603213    36.065476    37182.907    -308374.1 
    6190    1761.8451     163220.4    72.289082    72.289082    36.066034          120    90171.197    88147.968    22490.496    3020.3177    -1948.036    610.11519    72.289082    62.604182    36.066034    66936.554   -308257.19 
    6200    1797.6151    163227.98      72.2902    72.290201    36.066592          120    24025.807    18306.939   -42126.664   -398.82679    1211.0686     1008.968      72.2902     62.60515    36.066592    68.693684   -308329.57 
    6210    1785.4921    163235.54    72.291316    72.291317    36.067149          120    15277.002    19198.191   -44593.728   -3815.0759      1294.43    1635.7295    72.291316    62.606117    36.067149    -3372.845   -308302.63 
    6220    1771.0089    163243.09    72.292431    72.292432    36.067705          120    84907.649    89016.623    22669.682    1279.7344   -2390.1324    65.839545    72.292431    62.607082    36.067705    65531.318   -308270.51 
    6230    1811.2312    163250.63    72.293545    72.293545    36.068261          120    64992.719    59474.261   -268.70017    2799.5865    -990.6363    155.28754    72.293545    62.608047    36.068261    41399.427    -308351.7 
    6240    1756.0009    163258.17    72.294658    72.294658    36.068816          120    3308.6498   -826.34489   -59037.408   -973.58997    3103.3844    3252.8832    72.294658    62.609011    36.068816   -18851.701   -308235.55 
    6250    1820.6186     163265.7    72.295768    72.295769     36.06937          120    48610.218    55784.438   -8632.2278   -1196.2535   -343.90172     1415.685    72.295768    62.609973     36.06937     31920.81   -308367.16 
    6260    1767.6021    163273.21    72.296878    72.296878    36.069924          120    88491.323     90035.67    27705.568    1489.6304   -2797.3497    -1269.076    72.296878    62.610933    36.069924    68744.187   -308254.64 
    6270     1813.477    163280.73    72.297987    72.297987    36.070477          120    28521.363     21909.73   -35432.961    1990.2039    1430.6528      2522.12    72.297987    62.611894    36.070477    4999.3774   -308347.53 
    6280    1787.1572    163288.23    72.299094    72.299094    36.071029          120    10318.545    13114.401   -46703.731    120.52214    2823.1824    4389.1915    72.299094    62.612852    36.071029   -7756.9284   -308291.42 
    6290    1791.0303    163295.72    72.300199      72.3002    36.071581          120    77948.233    85284.027    22279.729   -1548.2277   -2263.5937   -558.76521    72.300199     62.61381    36.071581     61837.33   -308297.41 
    6300    1810.8407     163303.2    72.301303    72.301304    36.072132          120    67385.946    65709.697    4884.6674      541.437   -1574.8805   -118.54185    72.301303    62.614766    36.072132    45993.437   -308336.87 
    6310    1761.2134    163310.68    72.302407    72.302408    36.072682          120    3932.1415    91.946442   -58210.118    2472.7898    2832.5807     4969.716    72.302407    62.615722    36.072682    -18062.01   -308232.95 
    6320    1816.9353    163318.14    72.303509    72.303509    36.073232          120     41573.33    47510.972    -12214.95   -1767.1587   -23.115218    2590.1001    72.303509    62.616676    36.073232    25623.117   -308346.77 
    6330    1755.1891     163325.6    72.304609    72.304609    36.073781          120     87366.23    91907.747    30057.628   -2682.2707   -2356.2774    -761.0138    72.304609    62.617629    36.073781    69777.201   -308217.22 
    6340    1805.1444    163333.05    72.305709    72.305709    36.074329          120    33657.579    28334.852   -31321.349    1728.5019    118.95718    2165.7182    72.305709    62.618581    36.074329    10223.694   -308319.05 
    6350    1770.2893    163340.49    72.306807    72.306807    36.074877          120    9501.4196    6721.2167   -50636.198    502.98326    781.65495     4882.286    72.306807    62.619532    36.074877   -11471.187   -308244.89 
    6360    1785.9097    163347.92    72.307903    72.307904    36.075424          120    74162.213    80304.192    20692.554    -3899.294   -1082.7119    1811.7411    72.307903    62.620482    36.075424     58386.32   -308275.24 
    6370    1800.5622    163355.35    72.308999    72.308999    36.075971          120    70301.988    71219.383    10959.855   -842.65119   -633.21858    418.75084    72.308999    62.621431    36.075971    50827.075   -308303.39 
    6380    1768.6441    163362.77    72.310094    72.310094    36.076517          120    8666.6319   -142.70498   -57410.439    1862.6422    29.774252    3708.4808    72.310094    62.622379    36.076517   -16295.504   -308235.18 
    6390    1822.7749    163370.18    72.311187    72.311187    36.077063          120    39181.493    39442.785   -18031.308   -2497.0283   -280.29136    4373.7532    72.311187    62.623325    36.077063    20197.657   -308345.34 
    6400    1766.4932    163377.58    72.312279    72.312279    36.077607          120    85321.421    92968.093    32749.103   -2857.8413    648.66601    1392.4849    72.312279    62.624271    36.077607    70346.206   -308226.47 
    6410    1825.6783    163384.98     72.31337     72.31337    36.078152          120    37656.106    33855.053   -24048.045    1377.7862    492.30457    1748.3919     72.31337    62.625216    36.078152    15821.038    -308347.3 
    6420    1775.6937    163392.36     72.31446     72.31446    36.078696          120    9848.8098    2061.8733   -53541.448    23.170224   -727.06799     3933.494     72.31446     62.62616    36.078696   -13876.922   -308242.26 
    6430    1804.3459    163399.74    72.315548    72.315549    36.079239          120     70115.82    76512.079    17366.925   -3266.6526    800.15434    2890.0199    72.315548    62.627102    36.079239    54664.942   -308299.93 
    6440    1800.9951    163407.11    72.316636    72.316636    36.079781          120    71575.543    77481.297     17471.09   -966.84156    1571.9407    1481.1371    72.316636    62.628044    36.079781     55509.31    -308291.4 
    6450    1774.5618    163414.48    72.317723    72.317724    36.080324          120    10473.627    2590.7753   -52337.563    1359.4593   -13.883937    2048.5664    72.317723    62.628986    36.080324   -13091.053   -308235.03 
    6460    1819.7164    163421.84    72.318808    72.318809    36.080865          120    34875.172    33008.261   -23022.293   -1681.5298   -221.98552    2876.1186    72.318808    62.629926    36.080865    14953.713   -308326.74 
    6470    1763.2707    163429.19    72.319893    72.319893    36.081406          120    85370.359    93482.712     32379.17   -3427.4194    1141.4141    2501.0264    72.319893    62.630865    36.081406    70410.747   -308207.66 
    6480    1824.2605    163436.54    72.320977    72.320977    36.081947          120    40869.811    41236.895   -16974.461    18.143221    1299.7229    2174.4545    72.320977    62.631804    36.081947    21710.749   -308332.68 
    6490    1768.7724    163443.88     72.32206     72.32206    36.082487          120    6065.3711   -915.62547   -54234.164    970.79652    131.06346    2018.2865     72.32206    62.632741    36.082487   -16361.473   -308215.92 
    6500    1814.3984    163451.21    72.323141    72.323141    36.083027          120    68547.494    69966.751    11470.888   -3304.6433   -56.340921    2145.7734    72.323141    62.633678    36.083027    49995.044   -308308.51 
    6510    1795.4059    163458.54    72.324221    72.324222    36.083566          120    76217.068    80560.807    20436.295    -2902.198    906.12022    3575.9883    72.324221    62.634614    36.083566     59071.39   -308267.18 
    6520    1793.2148    163465.86    72.325301    72.325302    36.084105          120    9886.7983    7045.9884   -48074.091    1926.1274    1541.0635    2673.8866    72.325301    62.635549    36.084105   -10380.435   -308261.04 
    6530    1823.5233    163473.18     72.32638     72.32638    36.084643          120     30770.21    26182.517   -29437.093    -562.0325    320.34005    714.98507     72.32638    62.636483    36.084643     9171.878   -308321.95 
    6540    1777.1678    163480.48    72.327457    72.327458     36.08518          120    88627.069    88800.497    30867.098   -4525.1483   -284.19261    3425.7426    72.327457    62.637416     36.08518    69431.554   -308224.02 
    6550    1838.4833    163487.78    72.328534    72.328535    36.085717          120    44848.806    47182.196   -10759.594   -160.16313    943.62038    3987.2746    72.328534    62.638349    36.085717     27090.47   -308349.15 
    6560    1773.9117    163495.08     72.32961    72.329611    36.086254          120    2826.0697    432.86952   -56791.528    2552.2795    1195.7247    465.28403     72.32961    62.639281    36.086254   -17844.196   -308214.16 
    6570    1826.9176    163502.37    72.330685    72.330685     36.08679          120    67244.639    62826.659    6045.9361   -3180.7968   -107.66391    1941.5207    72.330685    62.640211     36.08679    45372.411    -308322.2 
    6580     1793.106    163509.65    72.331759    72.331759    36.087326          120    81265.918    81722.136    25207.443   -2941.8248   -536.31771    4785.9072    72.331759    62.641141    36.087326    62731.832   -308250.41 
    6590    1799.8652    163516.93    72.332832    72.332833    36.087862          120    12835.542    15157.666   -45529.574    3230.2355   -96.567337     1674.363    72.332832    62.642071    36.087862   -5845.4554   -308263.38 
    6600    1811.9004     163524.2    72.333904    72.333905    36.088397          120    27236.718    22870.334   -35877.816    730.36219   -362.24986    553.17578    72.333904    62.642999    36.088397    4743.0786   -308286.67 
    6610    1779.4836    163531.47    72.334976    72.334976    36.088931          120    89774.792    85588.335     31376.78   -3009.5355   -403.97813    4632.6569    72.334976    62.643927    36.088931    68913.302   -308217.79 
    6620    1828.1983    163538.73    72.336047    72.336047    36.089465          120    52174.406    53993.542   -4959.3067    910.03512   -1012.2187    3254.5034    72.336047    62.644855    36.089465    33736.214    -308317.3 
    6630    1772.5244    163545.99    72.337117    72.337117    36.089999          120     3568.553    2345.9453   -59002.889     3427.099   -2445.6072   -304.77513    72.337117    62.645782    36.089999    -17696.13   -308200.01 
    6640    1835.1763    163553.24    72.338186    72.338186    36.090533          120    63377.874    57059.489    2317.2331    98.919503   -851.00759    3116.5659    72.338186    62.646707    36.090533    40918.199   -308327.85 
    6650    1796.4141    163560.49    72.339254    72.339255    36.091066          120    86159.296    84058.462    28460.521   -364.18382   -617.97623    4332.4045    72.339254    62.647633    36.091066    66226.093   -308245.39 
    6660    1826.2856    163567.74    72.340323    72.340323    36.091599          120    18799.245    19364.772   -41872.668    2339.4593   -3152.7341    635.56376    72.340323    62.648558    36.091599   -1236.2168   -308305.22 
    6670     1829.157    163574.98     72.34139    72.341391    36.092131          120    22135.216    17750.359   -39262.323    2920.1678   -3153.1769    1445.5572     72.34139    62.649482    36.092131    207.75067   -308309.18 
    6680    1807.6539    163582.21    72.342456    72.342457    36.092663          120    88444.171    83612.915    29087.231    1057.6437   -622.67478    4087.6601    72.342456    62.650406    36.092663    67048.106   -308262.72 
    6690    1850.9487    163589.44    72.343523    72.343523    36.093195          120    59167.585     58402.01   -162.91336    611.03522    -2045.262    2383.9658    72.343523    62.651329    36.093195    39135.561   -308350.76 
    6700    1790.7464    163596.67    72.344588    72.344589    36.093727          120    2825.7905    2018.9787   -57538.687    2436.1495   -4263.0027    1427.9985    72.344588    62.652252    36.093727   -17564.639   -308224.97 
    6710    1846.4918    163603.89    72.345653    72.345653    36.094258          120    56957.998    52455.709   -2146.5235    2957.5644   -1676.6518    3469.9128    72.345653    62.653174    36.094258    35755.728   -308339.56 
    6720    1797.3739    163611.11    72.346717    72.346717    36.094789          120     89343.54    85858.003    30118.516    1329.0378   -1995.2639    2997.3065    72.346717    62.654095    36.094789     68440.02   -308235.93 
    6730    1828.1547    163618.33    72.347781    72.347781     36.09532          120    23764.642    23811.878   -36579.763    859.09434   -4079.9096    1668.3347    72.347781    62.655017     36.09532     3665.586   -308298.53 
    6740    1814.5904    163625.54    72.348844    72.348844     36.09585          120    16273.602    14503.618   -42886.901    2788.4082   -2644.8873    3278.6072    72.348844    62.655937     36.09585   -4036.5604   -308268.92 
    6750    1806.4976    163632.75    72.349906    72.349906     36.09638          120    85267.969     80045.05    26548.822    2626.1809    -2249.178    3027.5756    72.349906    62.656857     36.09638    63953.947   -308250.53 
    6760    1837.8209    163639.95    72.350967    72.350968     36.09691          120    64746.908    62612.767    4360.4831     1268.904   -4040.8225    1336.3343    72.350967    62.657776     36.09691    43906.719   -308314.31 
    6770    1784.6538    163647.16    72.352029     72.35203    36.097439          120    2764.5583     2986.252   -58605.674    1321.2219   -2877.3694    2936.3164    72.352029    62.658696    36.097439   -17618.288   -308203.16 
    6780    1845.3067    163654.35    72.353089     72.35309    36.097968          120    50008.415    45615.756   -8274.1782     2205.924   -1654.9503    3602.7245    72.353089    62.659614    36.097968    29116.664   -308327.21 
    6790    1786.1307    163661.54    72.354149    72.354149    36.098497          120    89673.275    85391.036    31487.427    2259.4004   -3664.2742    1042.4998    72.354149    62.660532    36.098497    68850.579   -308203.34 
    6800    1832.3704    163668.73    72.355209    72.355209    36.099026          120    28275.501    27959.325   -33832.917     1538.899   -3419.4399    1761.1393    72.355209    62.661449    36.099026     7467.303   -308298.02 
    6810    1804.4347    163675.92    72.356267    72.356268    36.099554          120    11668.041    9431.3365   -49074.088    849.84557   -1430.1385    3588.3138    72.356267    62.662366    36.099554   -9324.9037   -308238.62 
    6820     1809.553    163683.09    72.357325    72.357325    36.100081          120    79731.526    75015.095    23754.731    1599.2624   -2492.5309    1626.8003    72.357325    62.663282    36.100081    59500.451   -308247.83 
    6830    1830.9105    163690.27    72.358382    72.358382    36.100609          120    67613.384    65636.057    8520.5603    2425.7564     -3322.71    570.87091    72.358382    62.664198    36.100609    47256.667   -308290.39 
    6840    1788.4379    163697.44    72.359439    72.359439    36.101136          120    4231.1388    2930.6977    -60345.46    1381.8153   -1929.1411    1818.5231    72.359439    62.665113    36.101136   -17727.874   -308201.41 
    6850    1844.4971     163704.6    72.360494    72.360495    36.101663          120    43394.647    39034.954    -15750.86    78.380762   -1452.9156    1852.1948    72.360494    62.666027    36.101663    22226.247   -308316.22 
    6860    1788.0657    163711.76    72.361549    72.361549    36.102189          120    87270.328    84526.599    32288.556     1340.846   -1947.1572    909.47298    72.361549     62.66694    36.102189    68028.494   -308197.73 
    6870    1844.9666    163718.92    72.362603    72.362604    36.102715          120    32567.895    31577.154   -30814.144    2230.4439   -2040.6401    1059.8519    72.362603    62.667854    36.102715    11110.301   -308314.38 
    6880     1804.247    163726.07    72.363657    72.363658    36.103241          120    9346.3121    5848.1746   -57353.874    542.55138   -1215.2747    734.67282    72.363657    62.668766    36.103241   -14053.129   -308228.29 
    6890     1831.577    163733.21    72.364709     72.36471    36.103766          120    73560.604    70683.537    17733.277   -362.74412   -775.40034    961.26374    72.364709    62.669677    36.103766    53992.473   -308282.98 
    6900    1836.0455    163740.35    72.365761    72.365762     36.10429          120    69260.225    68876.214    11751.462    939.38641   -1488.3575    1577.1004    72.365761    62.670588     36.10429    49962.634   -308290.83 
    6910    1808.5709    163747.49    72.366812    72.366813    36.104815          120    6948.3221    4626.1912   -62506.776    1985.8542   -1765.0107    616.99713    72.366812    62.671498    36.104815   -16977.421   -308232.72 
    6920    1854.7586    163754.61    72.367862    72.367863    36.105339          120    37199.229    33967.266   -26060.004   -392.29731   -928.54432   -352.82913    72.367862    62.672408    36.105339    15035.497   -308327.03 
    6930    1798.7725    163761.73    72.368911    72.368912    36.105862          120    85297.679    84756.678    31176.153   -1102.2184   -1306.9686    990.65142    72.368911    62.673316    36.105862    67076.837   -308209.97 
    6940    1852.5287    163768.85     72.36996     72.36996    36.106385          120    37834.032    36115.344   -26563.122    1488.4813   -1959.6356    1079.4867     72.36996    62.674224    36.106385    15795.418    -308320.3 
    6950    1800.9324    163775.97    72.371007    72.371008    36.106908          120    6946.6744    3825.7786   -62725.104    1187.6242   -1486.2546   -1081.8541    72.371007    62.675132    36.106908    -17317.55   -308212.72 
    6960    1832.6051    163783.07    72.372054    72.372054     36.10743          120    69081.846    67711.528    12096.744   -2141.3876   -2158.8577    -525.3133    72.372054    62.676038     36.10743    49630.039   -308277.02 
    6970     1819.088    163790.17      72.3731      72.3731    36.107952          120    73558.115     72438.15    16494.898   -896.73864    -2583.261    801.21957      72.3731    62.676943    36.107952    54163.721   -308248.31 
    6980    1805.2884    163797.27    72.374145    72.374146    36.108473          120    9736.1907     6968.985   -58734.408    2235.6981   -1092.8951   -743.23519    72.374145    62.677849    36.108473   -14009.744   -308218.68 
    6990    1836.2401    163804.36    72.375189     72.37519    36.108994          120    32227.838    29936.852   -32182.101   -786.66053     -1858.88   -1579.8403    72.375189    62.678753    36.108994     9994.196   -308281.79 
    7000    1788.8166    163811.44    72.376233    72.376233    36.109515          120    85816.187    84717.558     30516.01   -2635.7279   -4054.3757    413.18044    72.376233    62.679657    36.109515    67016.585   -308182.19 
    7010    1843.8295    163818.53    72.377276    72.377277    36.110035          120    42380.829    40597.105   -18748.417    1110.9311   -1638.2923   -166.51523    72.377276     62.68056    36.110035    21409.839   -308294.86 
    7020    1788.6069    163825.61    72.378319    72.378319    36.110556          120    4046.0303    2153.4554   -63401.865     1788.732    463.82735   -1782.1293    72.378319    62.681463    36.110556    -19067.46   -308179.77 
    7030      1832.61    163832.68     72.37936     72.37936    36.111075          120    65568.018    63582.225    5103.5548   -2028.3153    -3647.485    61.200674     72.37936    62.682365    36.111075    44751.266   -308269.57 
    7040    1813.9565    163839.74      72.3804    72.380401    36.111594          120    76190.509    75435.237    19952.691    -1165.036   -3971.6237    613.69922      72.3804    62.683266    36.111594    57192.812   -308229.31 
    7050    1812.0405    163846.81    72.381441    72.381441    36.112113          120    9438.4997    9917.3419   -53160.771    2765.1033    644.70321   -2083.2505    72.381441    62.684167    36.112113    -11268.31   -308224.34 
    7060    1837.9288    163853.87     72.38248     72.38248    36.112632          120    25517.872    25184.744   -38999.291    559.98104   -933.77777   -1174.6751     72.38248    62.685067    36.112632    3901.1083    -308276.8 
    7070    1799.6275    163860.92    72.383518    72.383519     36.11315          120    83994.612    83795.264    26832.071   -1882.4963   -4462.2012    1598.8161    72.383518    62.685966     36.11315    64873.983   -308195.93 
    7080     1851.775    163867.96    72.384556    72.384556    36.113667          120    44554.963     45727.54   -12760.241    1151.9563   -1659.6254    -853.9552    72.384556    62.686865    36.113667    25840.754      -308303 
    7090    1796.5917    163875.01    72.385593    72.385594    36.114185          120    -1256.363    1697.1455   -64998.035    2592.2293    556.40184   -2707.4139    72.385593    62.687763    36.114185   -21519.084   -308187.53 
    7100    1847.4099    163882.04    72.386629    72.386629    36.114702          120    58053.153    60217.945   -1974.1579   -413.40393   -2454.9842    1346.8835    72.386629     62.68866    36.114702    38765.647   -308291.87 
    7110    1812.0179    163889.07    72.387664    72.387665    36.115218          120    77545.277     77933.71    22151.332   -197.92151   -2820.6349     1672.193    72.387664    62.689557    36.115218    59210.107   -308217.53 
    7120    1824.0506     163896.1    72.388699    72.388699    36.115734          120    10971.677    13942.805   -49952.042    2498.3267   -232.94469   -2580.0191    72.388699    62.690453    36.115734   -8345.8536   -308241.56 
    7130    1831.5478    163903.12    72.389732    72.389733     36.11625          120    17677.201    22530.781   -44792.422    1696.9184   -1184.1718   -516.12736    72.389732    62.691348     36.11625   -1528.1464   -308256.45 
    7140    1797.5777    163910.14    72.390765    72.390766    36.116765          120    80786.456    82744.393    24877.877    55.574087   -2485.6483    3351.2205    72.390765    62.692242    36.116765    62802.909   -308185.23 
    7150    1845.7658    163917.15    72.391797    72.391798     36.11728          120    50064.899    50326.211   -7314.0804    1249.4843   -993.57446   0.58388715    72.391797    62.693136     36.11728    31025.676   -308284.31 
    7160     1783.757    163924.16    72.392829     72.39283    36.117795          120   -1760.4079    1588.4817   -64973.814    2983.3184   -691.36289   -2268.7339    72.392829     62.69403    36.117795   -21715.247   -308155.07 
    7170    1840.8662    163931.16    72.393859     72.39386    36.118309          120    52369.746    56227.865   -6560.8061    1442.5934   -1942.6678    2479.9203    72.393859    62.694922    36.118309    34012.268   -308272.65 
    7180     1797.952    163938.15    72.394889     72.39489    36.118823          120      80176.8    80542.636    25273.987    150.38864   -1616.0692    3141.1799    72.394889    62.695814    36.118823    61997.808   -308182.29 
    7190    1825.2359    163945.15    72.395919    72.395919    36.119337          120    17231.317    16943.604   -43674.719    2811.2414    27.344499   -1854.2259    72.395919    62.696705    36.119337   -3166.5994   -308237.76 
    7200    1822.2893    163952.14    72.396947    72.396948     36.11985          120    14556.707    16521.868   -47759.206    3658.6014   -852.32748   -592.12277    72.396947    62.697596     36.11985   -5560.2106   -308230.35 
    7210     1812.409    163959.12    72.397975    72.397976    36.120362          120    78529.344    80552.942    22929.285    -42.35805   -2108.1399    4166.5411    72.397975    62.698486    36.120362    60670.524   -308208.07 
    7220    1850.8138     163966.1    72.399003    72.399003    36.120875          120    55581.144    55167.891   -1539.4746    768.69057   -629.43506    1017.8885    72.399003    62.699376    36.120875    36403.187   -308286.14 
    7230    1802.1761    163973.08     72.40003     72.40003    36.121387          120   -525.18379   -1589.0603   -62609.465    5405.1212   -46.228461   -2438.8242     72.40003    62.700265    36.121387    -21574.57   -308184.08 
    7240     1861.894    163980.05    72.401055    72.401056    36.121899          120    47130.784    47653.825   -10579.958    2401.8846   -1680.4093    2230.3119    72.401055    62.701154    36.121899    28068.217   -308306.59 
    7250     1808.522    163987.01     72.40208    72.402081    36.122411          120    81325.078    82379.308    26332.721   -1374.6811   -1149.5171    3370.7992     72.40208    62.702041    36.122411    63345.703    -308194.8 
    7260    1847.5391    163993.98    72.403105    72.403106    36.122922          120    21169.469      20033.7   -38084.944    3420.5092     203.3626   -1475.9586    72.403105    62.702929    36.122922    1039.4085   -308275.09 
    7270     1823.131    164000.93    72.404129     72.40413    36.123433          120    10610.315    7464.9786   -48812.236    5271.9084   -1045.0971   -891.43148    72.404129    62.703816    36.123433   -10245.647   -308224.16 
    7280    1820.0459    164007.89    72.405152    72.405153    36.123943          120     75502.83    75663.603    21215.826   -559.30487   -1263.1949    3290.4084    72.405152    62.704702    36.123943    57460.753   -308217.03 
    7290    1842.0987    164014.84    72.406175    72.406176    36.124454          120    59791.328    59848.498    3282.2512    -180.5507    592.38813    228.52785    72.406175    62.705588    36.124454    40974.026   -308261.97 
    7300    1798.5603    164021.78    72.407197    72.407198    36.124964          120    1467.8001   -3387.7932   -60174.378    4378.0854     45.54051   -3209.2275    72.407197    62.706473    36.124964   -20698.124   -308171.26 
    7310    1849.3018    164028.72    72.408218    72.408219    36.125473          120    42634.279    38937.097   -14215.515    1501.2219   -1945.9621    1247.1864    72.408218    62.707357    36.125473    22451.954   -308275.71 
    7320    1801.0211    164035.66    72.409239     72.40924    36.125982          120    82633.938    82078.251    28047.521   -1195.5789   -41.248483    1723.8195    72.409239    62.708241    36.125982    64253.237    -308174.4 
    7330    1846.2409    164042.59    72.410259     72.41026    36.126491          120     27806.11    23800.172   -34277.811    1428.4414    1713.6109   -3247.6957    72.410259    62.709125    36.126491    5776.1571    -308267.3 
    7340    1817.3564    164049.52    72.411279     72.41128       36.127          120    8774.1743      2398.38   -53616.325    1826.2247   -1237.5944   -1594.2078    72.411279    62.710008       36.127   -14147.924   -308206.19 
    7350    1834.3352    164056.44    72.412297    72.412298    36.127508          120    72305.841    69804.385    17015.833   -454.23496   -1803.9136     2524.199    72.412297     62.71089    36.127508     53042.02   -308239.92 
    7360    1846.7715    164063.36    72.413315    72.413316    36.128016          120    65536.358    62282.375    6064.6551   -48.789793    1552.0982    -884.0518    72.413315    62.711771    36.128016    44627.796   -308264.59 
    7370    1816.6161    164070.28    72.414333    72.414334    36.128524          120    4143.3678   -2350.8331    -61650.68     841.5192     1370.591   -4094.1797    72.414333    62.712653    36.128524   -19952.715   -308201.44 
    7380    1863.3189    164077.19     72.41535     72.41535    36.129031          120    36519.941    33041.211   -22792.033   -435.50743   -2298.0694    1265.0361     72.41535    62.713533    36.129031    15589.706   -308297.08 
    7390    1811.3675    164084.09    72.416365    72.416366    36.129538          120    83858.903    81009.848    26210.108   -238.42411   -735.97139     2136.077    72.416365    62.714413    36.129538    63692.953   -308188.56 
    7400    1857.5955       164091    72.417381    72.417381    36.130044          120    33393.486    28186.033   -30848.317    324.37562    2165.1296   -3806.5662    72.417381    62.715292    36.130044    10243.734   -308284.22 
    7410    1816.6516    164097.89    72.418395    72.418396     36.13055          120    4337.4992      1055.61   -58812.255   -873.47153   -500.16616   -2158.0441    72.418395    62.716171     36.13055   -17806.382   -308199.21 
    7420    1836.5121    164104.78    72.419409    72.419409    36.131056          120    68691.005    66613.791    10396.849    -961.8725   -2307.5325    3649.2969    72.419409    62.717048    36.131056    48567.215   -308239.94 
    7430    1835.8189    164111.67    72.420422    72.420422    36.131561          120    70404.284    66187.005    9304.5196    424.23944    251.62652     193.7647    72.420422    62.717926    36.131561    48631.936   -308238.11 
    7440    1813.2031    164118.56    72.421435    72.421435    36.132067          120     4332.725    2543.6901   -59742.861   -887.40084    794.80702   -4430.7513    72.421435    62.718803    36.132067   -17622.149   -308191.08 
    7450    1851.5932    164125.43    72.422446    72.422447    36.132571          120     30201.13    30308.557   -29761.117   -2145.8271   -1702.1899    1786.7491    72.422446    62.719679    36.132571    10249.523   -308269.83 
    7460    1804.7345    164132.31    72.423457    72.423457    36.133076          120    84949.013    80610.658     24985.82    358.46689   -1592.6093    4202.6402    72.423457    62.720554    36.133076    63515.163   -308171.81 
    7470     1858.413    164139.18    72.424468    72.424468     36.13358          120    37221.068    35604.133   -25329.005   -186.10704    272.11089   -2103.1862    72.424468    62.721429     36.13358    15832.065   -308282.33 
    7480    1809.2306    164146.04    72.425478    72.425478    36.134084          120    173.36027    2239.6423   -62030.439   -2351.8787    -845.5446   -2428.5275    72.425478    62.722304    36.134084   -19872.479   -308180.09 
    7490    1846.4411     164152.9    72.426486    72.426487    36.134587          120    64559.052    62376.814    5483.5944   -210.74154   -2322.6459    4040.0226    72.426486    62.723178    36.134587     44139.82   -308256.15 
    7500    1832.7706    164159.76    72.427495    72.427495     36.13509          120    73861.979    69769.858    13772.092    1166.9244    -472.2996    2244.0349    72.427495    62.724051     36.13509    52467.977    -308226.9 
    7510    1823.2831    164166.62    72.428503    72.428504    36.135593          120    5967.5782    7879.6415   -56854.237   -1175.7576   -138.14564   -3172.6714    72.428503    62.724924    36.135593   -14335.672   -308206.84 
    7520    1852.1547    164173.46     72.42951    72.429511    36.136096          120      24079.5    25701.085   -34983.953   -709.70101   -2486.4191    17.135456     72.42951    62.725796    36.136096    4932.2105   -308266.02 
    7530    1808.9896    164180.31    72.430517    72.430517    36.136598          120    83140.243    78527.401    26910.979    2528.6505   -1000.5582    3331.6187    72.430517    62.726668    36.136598    62859.541   -308176.09 
    7540    1858.6475    164187.15    72.431523    72.431523      36.1371          120    41394.264    40641.482   -17585.562    1226.3738    820.15679    26.915228    72.431523    62.727539      36.1371    21483.395   -308278.51 
    7550    1803.5313    164193.99    72.432529    72.432529    36.137602          120   -2564.8662    1275.4159   -63319.707    -732.6483   -1858.9149   -1872.4291    72.432529     62.72841    36.137602   -21536.386   -308164.14 
    7560    1848.5368    164200.82    72.433533    72.433534    36.138103          120    58187.979    56256.453    3818.4172    2191.8121   -2278.2792    1294.5763    72.433533     62.72928    36.138103     39420.95   -308256.88 
    7570    1818.4579    164207.65    72.434537    72.434538    36.138604          120    74430.314      70672.4    21281.128    4153.9685    600.67535    1694.3181    72.434537     62.73015    36.138604    55461.281   -308193.98 
    7580    1828.9574    164214.48    72.435541    72.435542    36.139105          120    7662.7281     10185.19   -51733.554    1028.6935   -75.840963   -43.138399    72.435541     62.73102    36.139105   -11295.212   -308215.09 
    7590    1842.0738     164221.3    72.436544    72.436545    36.139605          120    18078.283    19656.782   -40248.038     122.3999   -2991.7847   -238.03775    72.436544    62.731888    36.139605   -837.65792   -308241.94 
    7600     1814.832    164228.12    72.437546    72.437547    36.140105          120    79067.591    75287.187     26992.47    4287.8745   -1254.6671    796.32587    72.437546    62.732756    36.140105    60449.082    -308184.6 
    7610    1862.6647    164234.93    72.438548    72.438549    36.140605          120    44126.548    43234.696   -11066.457    4053.6899    437.36934    1462.5158    72.438548    62.733624    36.140605    25431.596   -308282.75 
    7620    1808.8589    164241.74     72.43955     72.43955    36.141105          120   -4726.8298   -440.61594   -65956.848    151.74254   -1908.9998    637.71798     72.43955    62.734491    36.141105   -23708.098   -308171.06 
    7630     1858.182    164248.54     72.44055     72.44055    36.141604          120    51778.052    51665.992   -4896.0985    1381.8456   -3145.6709   -391.97782     72.44055    62.735357    36.141604    32849.315    -308272.8 
    7640    1818.9306    164255.34    72.441549     72.44155    36.142102          120    75794.716    72390.879    22232.589    4181.4726   -1209.9789    674.83627    72.441549    62.736223    36.142102    56806.061   -308191.03 
    7650    1834.3231    164262.14    72.442549    72.442549    36.142601          120    10613.115    13580.002   -48334.122    2891.3911   -1077.9174    2027.6671    72.442549    62.737088    36.142601   -8047.0019   -308223.08 
    7660    1830.2331    164268.93    72.443547    72.443547    36.143099          120    12149.483    17809.136    -48618.56   -69.963565    -3908.238   -107.22745    72.443547    62.737952    36.143099   -6219.9803   -308214.72 
    7670    1812.0047    164275.71    72.444544    72.444544    36.143596          120    77497.709    75605.038    21398.774    1094.5866   -4097.0533    -605.3044    72.444544    62.738816    36.143596    58167.173   -308176.71 
    7680    1843.5085     164282.5    72.445541    72.445541    36.144094          120    50970.211    48359.316   -6623.4266    3605.5703   -2477.7432     1586.381    72.445541    62.739679    36.144094    30902.033   -308241.78 
    7690    1796.0844    164289.28    72.446537    72.446538    36.144591          120   -5435.5905    1219.6945   -66165.293    1935.4671    -3269.619    1116.3457    72.446537    62.740542    36.144591   -23460.396   -308143.24 
    7700     1844.888    164296.05    72.447533    72.447533    36.145087          120    45997.703    50449.028   -12375.683   -1162.6278    -5654.446    -751.4987    72.447533    62.741404    36.145087    28023.683   -308243.93 
    7710    1801.2691    164302.82    72.448528    72.448528    36.145584          120    80456.454     76099.75    22309.127     1234.004   -5208.2822    135.20951    72.448528    62.742266    36.145584    59621.777   -308153.65 
    7720    1831.2804    164309.58    72.449522    72.449523     36.14608          120    16780.146    17345.382   -43655.957    3509.3575   -3159.9983    1529.8389    72.449522    62.743127     36.14608   -3176.8097   -308215.31 
    7730    1820.3015    164316.35    72.450516    72.450517    36.146576          120    6628.9193    15610.819   -52566.461    338.25499   -4234.6188    6.2347909    72.450516    62.743988    36.146576   -10108.908   -308192.04 
    7740    1813.7286     164323.1    72.451509    72.451509    36.147071          120    74979.837    75868.105    16453.382   -823.17094   -6458.2914   -383.85555    72.451509    62.744848    36.147071    55767.108   -308177.91 
    7750    1845.1013    164329.86    72.452502    72.452502    36.147567          120    57392.144    53414.298    -3634.129    1996.5866   -4877.6208    1174.0289    72.452502    62.745708    36.147567    35724.104   -308242.01 
    7760    1802.7328    164336.61    72.453494    72.453495    36.148062          120   -5254.4419     662.8862    -65204.79    2899.1958   -2779.0894    1182.9831    72.453494    62.746567    36.148062   -23265.448   -308154.03 
    7770    1853.2982    164343.35    72.454485    72.454486    36.148556          120     38914.86    46692.007   -19479.455    126.18294   -4824.1706     402.0573    72.454485    62.747425    36.148556    22042.471   -308258.45 
    7780     1810.055    164350.09    72.455475    72.455476     36.14905          120    82159.918    78486.919    19644.565    240.60808   -6104.8075    860.92383    72.455475    62.748283     36.14905    60097.134   -308168.23 
    7790    1846.1658    164356.83    72.456466    72.456466    36.149544          120     21331.59    20221.537   -39894.322    2541.7556   -3697.4162    2134.4199    72.456466    62.749141    36.149544    552.93494   -308242.51 
    7800    1824.9548    164363.56    72.457455    72.457456    36.150038          120    209.84651    10661.405   -55880.659    2769.7603   -3014.7196    1674.0479    72.457455    62.749998    36.150038   -15003.136   -308198.32 
    7810    1830.3506    164370.29    72.458444    72.458444    36.150531          120    71582.438    72874.908    9111.8972    843.75307   -5145.6269    573.86239    72.458444    62.750853    36.150531    51189.747   -308209.07 
    7820    1847.5778    164377.01    72.459432    72.459432    36.151024          120    62638.594    56936.414   -2034.1061     737.0752   -5115.3718    2228.3465    72.459432    62.751709    36.151024    39180.301   -308244.52 
    7830    1809.7433    164383.73    72.460419     72.46042    36.151517          120   -6767.8755   -723.80779   -61904.551    3078.1432   -3363.0655    3001.3942    72.460419    62.752564    36.151517   -23132.078   -308166.07 
    7840    1857.6579    164390.45    72.461405    72.461406    36.152009          120    32304.923    39695.208   -25597.778    3106.7365   -3730.1199    405.08784    72.461405    62.753418    36.152009    15467.451   -308265.41 
    7850    1805.1593    164397.15    72.462391    72.462391      36.1525          120    83568.948     78918.88    17221.891    885.41126   -4979.4731    769.01577    72.462391    62.754272      36.1525     59903.24    -308156.7 
    7860     1851.551    164403.86    72.463376    72.463376    36.152992          120    25156.608    23594.053   -34487.209    1489.6769   -4507.7952    3881.8459    72.463376    62.755125    36.152992    4754.4841   -308252.76 
    7870    1817.5116    164410.56     72.46436    72.464361    36.153483          120   -3447.7455    4056.0355   -57813.198    3208.4625   -3733.6829    1838.9567     72.46436    62.755977    36.153483   -19068.303   -308182.07 
    7880    1835.8967    164417.25    72.465343    72.465344    36.153973          120    67295.592    67794.943    5069.7595    2200.8735   -3758.5888   -580.37518    72.465343    62.756829    36.153973    46720.098   -308219.92 
    7890    1843.4235    164423.94    72.466326    72.466326    36.154464          120    65614.045     59796.88    2012.8725    1200.6645   -4025.2169    2482.7229    72.466326     62.75768    36.154464    42474.599   -308235.05 
    7900    1818.2134    164430.62    72.467308    72.467308    36.154954          120   -3093.8251   -2168.9378   -60775.692    981.07944   -3788.1388    3958.0267    72.467308     62.75853    36.154954   -22012.818   -308182.52 
    7910     1859.284     164437.3    72.468289    72.468289    36.155443          120    27484.231    30648.025   -30478.255    1558.2413   -3552.5302    692.30421    72.468289     62.75938    36.155443    9218.0007   -308267.83 
    7920    1812.4161    164443.97    72.469268    72.469269    36.155932          120     80980.82    76246.948    19583.668    2044.8185   -3226.8561     708.5835    72.469268    62.760228    36.155932    58937.145   -308170.18 
    7930    1862.8638    164450.64    72.470248    72.470249     36.15642          120     31675.72    26281.139   -30760.844     506.8714   -3019.3396    3486.5089    72.470248    62.761076     36.15642    9065.3384   -308274.53 
    7940    1818.7886     164457.3    72.471227    72.471227    36.156909          120   -2590.1309   -1835.6851   -62426.968   -698.64013   -3822.4089    2719.4313    72.471227    62.761924    36.156909   -22284.261   -308183.16 
    7950     1851.771    164463.95    72.472204    72.472204    36.157396          120    61690.009    59737.821    3935.7226    1274.5685   -3731.5106     1017.959    72.472204     62.76277    36.157396    41787.851   -308250.92 
    7960    1842.5535     164470.6    72.473181    72.473181    36.157884          120    69204.614    60707.451    7242.7224    1364.5867    -3335.341    1747.4674    72.473181    62.763616    36.157884    45718.262   -308231.48 
    7970    1831.3554    164477.25    72.474157    72.474157    36.158371          120    3020.5718   -407.66805   -61308.292   -941.66352   -3577.8011    3008.5631    72.474157    62.764462    36.158371   -19565.129   -308208.32 
    7980    1860.7709    164483.89    72.475132    72.475132    36.158857          120    22306.813    23751.558   -35128.263   -487.25585   -4163.9154    1824.0438    72.475132    62.765306    36.158857    3643.3693   -308269.15 
    7990    1818.4138    164490.52    72.476106    72.476106    36.159343          120    80396.979    72753.163    22437.548    1226.8132   -4050.8199    969.83357    72.476106    62.766149    36.159343     58529.23   -308181.19 
    8000     1863.185    164497.15    72.477079     72.47708    36.159829          120    39311.216     31207.94   -26748.603    31.478676   -3511.3784    2436.8671    72.477079    62.766993    36.159829    14590.185   -308274.35 
    8010    1813.7899    164503.77    72.478052    72.478053    36.160314          120   -4209.0568   -1385.5478   -65649.621   -664.30436   -3464.1692    1824.9418    72.478052    62.767835    36.160314   -23748.075    -308172.5 
    8020    1847.9733    164510.39    72.479024    72.479024    36.160799          120    57271.393    54805.196    1743.7316    543.93575   -3592.4056    322.83927    72.479024    62.768677    36.160799    37940.107   -308243.89 
    8030    1825.3823       164517    72.479995    72.479996    36.161283          120    74019.662    63925.471    11088.696    171.44763    -3145.283    1290.5216    72.479995    62.769518    36.161283    49677.943   -308197.08 
    8040    1824.7135    164523.61    72.480966    72.480966    36.161768          120    6616.2211     6266.382   -60717.099     80.30501   -2321.5121    1681.7023    72.480966    62.770358    36.161768   -15944.832   -308195.99 
    8050    1840.8914    164530.21    72.481935    72.481936    36.162251          120    17255.039    20814.536   -40721.188    632.10474    -2651.721   -670.23805    72.481935    62.771198    36.162251    -883.8707   -308229.87 
    8060    1808.8254    164536.81    72.482904    72.482905    36.162735          120    79104.025    72370.089    20995.356    91.182006   -2617.8022   -670.43767    72.482904    62.772037    36.162735    57489.824   -308163.41 
    8070    1852.9663    164543.41    72.483873    72.483873    36.163218          120    43559.058    39170.042     -24429.5    209.67865   -1573.4464    1008.7071    72.483873    62.772876    36.163218      19433.2   -308254.76 
    8080    1804.5974       164550     72.48484    72.484841    36.163701          120   -4890.8335    -411.4711   -70493.627    1156.3905   -1502.9646   -552.55426     72.48484    62.773714    36.163701   -25265.311   -308154.89 
    8090    1846.4343    164556.58    72.485807    72.485807    36.164183          120      51855.7    51147.297   -5803.5904    207.73394   -2065.2851   -2198.7251    72.485807    62.774551    36.164183    32399.802   -308241.28 
    8100    1818.8012    164563.15    72.486772    72.486773    36.164665          120    74391.612     69531.86    11339.463    50.531784   -2231.5522   -273.94347    72.486772    62.775387    36.164665    51754.312   -308184.07 
    8110    1824.3224    164569.73    72.487738    72.487738    36.165146          120    9952.5264     11581.52   -59985.525    1239.8709   -978.31831    461.89908    72.487738    62.776223    36.165146   -12817.159   -308195.97 
    8120    1832.5817     164576.3    72.488702    72.488703    36.165627          120    13635.547    17148.781   -49056.811    210.18805   -515.86485   -1828.4603    72.488702    62.777058    36.165627   -6090.8279   -308213.61 
    8130    1805.4668    164582.86    72.489665    72.489666    36.166108          120    75509.076    73866.087    17139.706   -472.96329   -2742.0088   -1229.1035    72.489665    62.777892    36.166108    55504.956   -308157.82 
    8140    1844.6167    164589.42    72.490628    72.490629    36.166588          120    46869.945    46175.739   -18761.578    1165.4873   -2605.6567    428.27463    72.490628    62.778726    36.166588    24761.369   -308239.04 
    8150    1797.9097    164595.97    72.491591    72.491591    36.167069          120   -4565.9659   -87.089122   -72261.289    463.61298    908.39186   -836.11839    72.491591     62.77956    36.167069   -25638.115   -308142.42 
    8160    1847.3587    164602.52    72.492552    72.492552    36.167548          120    45842.196    48718.356   -11531.796   -1233.1399   -1125.9529   -2139.3878    72.492552    62.780392    36.167548    27676.252   -308244.93 
    8170    1812.8131    164609.06    72.493512    72.493513    36.168027          120    74471.928    73430.006    15743.888    420.61506   -4482.7711    -431.1823    72.493512    62.781224    36.168027    54548.608   -308173.15 
    8180    1837.0548     164615.6    72.494473    72.494473    36.168506          120    12818.667    15831.692   -53703.277    1279.6794   -307.63017   -547.45484    72.494473    62.782056    36.168506   -8350.9728   -308223.55 
    8190    1836.6705    164622.14    72.495432    72.495432    36.168985          120    8149.6315    14514.512   -53131.274   -1426.1699    1227.8218   -2760.8519    72.495432    62.782886    36.168985    -10155.71   -308222.72 
    8200    1821.6063    164628.67     72.49639    72.496391    36.169463          120    71371.492    72299.768    16930.363   -1180.0243   -4323.9158   -1921.1887     72.49639    62.783716    36.169463    53533.874   -308191.17 
    8210    1858.9756    164635.19    72.497348    72.497349    36.169941          120    50092.302    50207.754   -10376.669    1099.8188   -3358.3888   -778.43037    72.497348    62.784546    36.169941    29974.462    -308268.7 
    8220    1809.5422    164641.72    72.498305    72.498306    36.170419          120   -5844.2291      454.313   -70191.733   -369.05591    1839.7446   -2302.8019    72.498305    62.785375    36.170419   -25193.883   -308167.14 
    8230    1859.0889    164648.23    72.499262    72.499262    36.170896          120    39826.831    44390.214   -15738.831   -2649.0614   -2523.6069   -3221.5875    72.499262    62.786203    36.170896    22826.071   -308270.27 
    8240    1812.5516    164654.74    72.500217    72.500218    36.171373          120    75510.353    74122.847    20186.777   -254.08842   -5430.8949   -2236.7056    72.500217    62.787031    36.171373    56606.659    -308174.3 
    8250    1840.9862    164661.25    72.501173    72.501173    36.171849          120    16354.369    18830.657   -44753.616     739.4289   -267.49118   -2146.8572    72.501173    62.787858    36.171849     -3189.53   -308234.18 
    8260    1821.5325    164667.76    72.502128    72.502128    36.172326          120    3650.9962    11185.446   -55392.305   -2867.3904     115.3656   -3306.0744    72.502128    62.788685    36.172326   -13518.621   -308194.41 
    8270    1818.8091    164674.25    72.503081    72.503082    36.172801          120     69566.84      69402.9    14879.159   -1964.4132   -4783.5104   -3472.2449    72.503081    62.789511    36.172801    51282.966   -308189.37 
    8280    1839.2319    164680.75    72.504035    72.504035    36.173277          120    55052.671     52940.06   -2076.6634    1009.6999   -3218.8869   -3011.0302    72.504035    62.790337    36.173277    35305.356   -308232.02 
    8290    1800.4808    164687.25    72.504988    72.504989    36.173753          120   -6022.8718    796.47602   -66169.818   -1624.1333     1145.175   -3674.8998    72.504988    62.791162    36.173753   -23798.738   -308152.15 
    8300    1849.6858    164693.73     72.50594    72.505941    36.174228          120    35835.137    39416.064   -22017.746   -3732.2243   -1772.5165   -3763.2777     72.50594    62.791987    36.174228    17744.485   -308254.31 
    8310    1802.0927    164700.22    72.506891    72.506892    36.174702          120    78260.575    73571.523    21697.666    209.18777   -3650.7715   -3462.1289    72.506891    62.792811    36.174702    57843.255   -308155.91 
    8320    1845.1685     164706.7    72.507843    72.507843    36.175177          120     20594.61    22429.874   -38649.476     342.5893   -648.66028   -4057.1529    72.507843    62.793635    36.175177    1458.3358   -308245.54 
    8330    1817.0817    164713.18    72.508794    72.508794    36.175651          120    296.84662    7823.3087   -60025.638   -3732.7099    716.44563   -4551.6931    72.508794    62.794458    36.175651   -17301.828   -308187.72 
    8340    1828.8895    164719.65    72.509743    72.509744    36.176125          120    67928.084    65052.443    9461.4328   -1498.8919   -1583.2429   -3972.5649    72.509743     62.79528    36.176125    47480.653   -308212.18 
    8350     1840.331    164726.12    72.510692    72.510693    36.176599          120    59800.552     55358.74    1703.9795    1217.6613   -1755.3006   -3308.4309    72.510692    62.796102    36.176599    38954.424    -308236.1 
    8360    1811.5529    164732.59    72.511641    72.511642    36.177072          120    -4974.399    1356.6261   -65042.047   -1308.5728     518.3061   -4660.8011    72.511641    62.796924    36.177072   -22886.607   -308177.08 
    8370    1851.5518    164739.05    72.512589     72.51259    36.177545          120     30452.34    34321.582   -29967.109    -2520.885    537.89718   -5270.9839    72.512589    62.797745    36.177545    11602.271   -308260.34 
    8380    1809.0268     164745.5    72.513536    72.513537    36.178017          120    78706.835    73038.273    20529.029    66.580257   -849.35773   -3064.0478    72.513536    62.798565    36.178017    57424.712   -308172.34 
    8390    1850.9459    164751.96    72.514483    72.514484     36.17849          120    25002.371    25774.839    -33920.09    689.32263   -1092.6748   -2400.7763    72.514483    62.799385     36.17849    5619.0401    -308259.6 
    8400    1817.2022    164758.41    72.515429     72.51543    36.178962          120    -3453.344    5102.9478   -64410.231   -1633.2994    749.09193   -5345.9919    72.515429    62.800204    36.178962   -20920.209   -308190.15 
    8410    1839.6933    164764.85    72.516374    72.516374    36.179433          120    61969.925    62836.893     3025.758   -1212.6153    435.59024   -4150.5035    72.516374    62.801023    36.179433    42610.858   -308236.71 
    8420    1841.2893    164771.28    72.517318    72.517319    36.179905          120    62469.243    59853.076    4194.7984    566.62717   -1270.1072   -534.81075    72.517318    62.801841    36.179905    42172.373   -308240.33 
    8430    1822.8359    164777.72    72.518263    72.518263    36.180376          120   -2736.2264    3002.1976    -64529.93   -60.141131   -1153.9138   -2254.2832    72.518263    62.802658    36.180376   -21421.319   -308202.86 
    8440    1857.1877    164784.15    72.519205    72.519206    36.180846          120    23144.355    30513.027    -36800.93   -1232.0314    520.40005     -4740.22    72.519205    62.803475    36.180846    5618.8173   -308274.41 
    8450    1813.6878    164790.57    72.520147    72.520148    36.181316          120    76141.603    75642.959    19110.961   -276.52539    38.287485    -1327.124    72.520147    62.804291    36.181316    56965.174   -308184.96 
    8460    1854.8379    164796.99    72.521089     72.52109    36.181786          120    30671.911    31858.615   -30479.048    963.93086   -1986.4665    401.58048    72.521089    62.805106    36.181786    10683.826   -308270.91 
    8470    1812.9288    164803.41     72.52203    72.522031    36.182255          120   -4800.7038    2716.6094   -66700.977    37.574108   -1193.7733   -3226.0953     72.52203    62.805921    36.182255   -22928.357   -308185.09 
    8480     1837.347    164809.81     72.52297    72.522971    36.182724          120    56258.667    60060.799    630.19996   -1038.4532    286.77776   -2339.2589     72.52297    62.806735    36.182724    38983.222   -308236.61 
    8490    1829.5388    164816.22     72.52391    72.523911    36.183193          120    65565.591    65365.129    8598.4813    724.32336   -610.42801    32.804502     72.52391    62.807549    36.183193    46509.734   -308221.18 
    8500    1818.8215    164822.62    72.524849     72.52485    36.183662          120    1669.4672    6150.3814   -61611.683     2076.188   -2103.2766    -1267.802    72.524849    62.808363    36.183662   -17930.611   -308199.75 
    8510    1848.7021    164829.02    72.525788    72.525788     36.18413          120    18026.414    24967.023   -38846.971    -574.7815   -751.84433   -2124.8338    72.525788    62.809175     36.18413    1382.1555   -308262.07 
    8520    1813.4884    164835.41    72.526725    72.526726    36.184598          120    73394.947    74861.086    21368.803    -1018.855    378.66713   -487.09417    72.526725    62.809987    36.184598    56541.612   -308189.29 
    8530    1863.3819     164841.8    72.527663    72.527663    36.185065          120    35406.422    36899.683   -24676.901    2178.4665   -906.18204   -244.68116    72.527663    62.810799    36.185065    15876.401   -308293.01 
    8540    1819.2882    164848.19    72.528599      72.5286    36.185533          120   -6062.0238   -13.110923   -68195.454     2081.387   -1272.9959   -2010.7708    72.528599     62.81161    36.185533   -24756.863   -308202.08 
    8550    1860.1665    164854.57    72.529535    72.529535    36.185999          120    49010.159    53817.543    -1899.539   -2228.9876    31.207224   -881.43374    72.529535     62.81242    36.185999    33642.721   -308286.81 
    8560     1842.987    164860.95     72.53047     72.53047    36.186466          120    65679.996    66532.651    13244.472   -974.15177    54.160512    567.64498     72.53047     62.81323    36.186466    48485.706   -308251.52 
    8570    1844.7095    164867.32    72.531405    72.531405    36.186932          120    5487.2715    6804.3395   -59603.986    2988.4464   -515.67543   -1390.3784    72.531405     62.81404    36.186932   -15770.792   -308256.22 
    8580    1864.9222    164873.69    72.532338    72.532339    36.187398          120    12254.476    17749.613   -45039.752    9.6606447   -282.59788   -2431.1475    72.532338    62.814848    36.187398   -5011.8875   -308298.53 
    8590    1832.9296    164880.05    72.533271    72.533271    36.187863          120    67772.336    72253.467    20666.582   -3267.6345    117.11342    529.29569    72.533271    62.815656    36.187863    53564.128   -308232.91 
    8600    1875.4523     164886.4    72.534203    72.534203    36.188328          120    39335.206     38938.77   -19388.193   -338.49486    274.20684     358.2024    72.534203    62.816463    36.188328    19628.594   -308322.32 
    8610    1821.8782    164892.76    72.535134    72.535135    36.188793          120    -5519.529   -4700.4005    -70851.99    2079.3037    413.22576   -2968.4419    72.535134     62.81727    36.188793   -27023.973   -308212.52 
    8620    1861.1795     164899.1    72.536064    72.536065    36.189257          120     42089.77    49093.947   -7909.2775   -1610.9606   -106.41824   -1059.0781    72.536064    62.818075    36.189257    27758.146   -308295.13 
    8630    1821.6449    164905.44    72.536994    72.536994    36.189721          120     65722.66    69083.564    16392.463   -2642.0763   -349.77194    1459.6672    72.536994     62.81888    36.189721    50399.563   -308214.58 
    8640    1830.9857    164911.77    72.537923    72.537924    36.190184          120    9792.0438     8171.509   -54222.496   -47.541069     254.1339   -1486.3208    72.537923    62.819685    36.190184   -12086.315   -308235.48 
    8650    1827.6694     164918.1    72.538851    72.538852    36.190647          120     9000.784    12493.768   -49741.471    430.52039   -170.09064   -2440.8526    72.538851    62.820488    36.190647   -9415.6394   -308229.93 
    8660    1804.7311    164924.43    72.539778    72.539778     36.19111          120    65893.909    72592.221    17781.759   -955.64874   -1190.6679    1364.4518    72.539778    62.821291     36.19111    52089.296   -308183.29 
    8670    1839.6535    164930.75    72.540705    72.540705    36.191572          120    43504.359     45157.98   -12854.741   -1598.7404   -922.45999    309.23957    72.540705    62.822094    36.191572    25269.199   -308256.44 
    8680    1792.3262    164937.06    72.541631    72.541631    36.192034          120   -5432.9417   -5485.1413   -68196.591   -1375.7824   -311.37994   -2996.1866    72.541631    62.822896    36.192034   -26371.558   -308159.32 
    8690    1839.6195    164943.37    72.542556    72.542556    36.192496          120    39725.738    44812.281   -14654.298    818.83419   -1617.1632    43.427681    72.542556    62.823697    36.192496    23294.574   -308257.96 
    8700    1802.7698    164949.68     72.54348     72.54348    36.192957          120    69175.099    73825.013    15938.688    542.34872   -1885.8208    1685.8089     72.54348    62.824497    36.192957      52979.6   -308182.22 
    8710    1826.9925    164955.98    72.544404    72.544404    36.193418          120    12610.701    13695.296     -47909.3   -3115.3091   -559.60993   -2384.2889    72.544404    62.825297    36.193418   -7201.1008   -308233.61 
    8720    1818.8844    164962.28    72.545327    72.545327    36.193878          120    6025.4234    7479.3234    -52831.07   -1659.0243   -1239.1497   -2527.3283    72.545327    62.826097    36.193878   -13108.774   -308217.73 
    8730     1813.618    164968.57    72.546249    72.546249    36.194338          120    67436.923    70593.343    11918.279    1925.6951    -2449.874    1713.4559    72.546249    62.826895    36.194338    49982.849   -308207.25 
    8740    1839.2267    164974.85    72.547171    72.547171    36.194798          120    49457.245    51953.457   -9850.7478    -965.9058   -1070.0132    38.951017    72.547171    62.827693    36.194798    30519.985   -308261.12 
    8750    1803.5148    164981.14    72.548092    72.548092    36.195258          120   -5970.7386   -4828.9212    -65277.57   -4388.8013   -727.10896   -3622.4681    72.548092    62.828491    36.195258   -25359.077   -308188.22 
    8760    1848.5012    164987.42    72.549012    72.549013    36.195717          120    37159.611     37116.38   -18763.172   -661.18952   -2492.4565   -509.05719    72.549012    62.829288    36.195717    18504.273   -308282.02 
    8770    1810.1942    164993.69    72.549932    72.549932    36.196176          120    74057.565    75565.616    15006.266    870.83913   -2263.2609    1763.4011    72.549932    62.830084    36.196176    54876.483   -308203.46 
    8780    1842.0624    164999.96    72.550851    72.550852    36.196634          120    17377.578    19444.601    -43561.49   -2690.1886    -1213.762   -938.05803    72.550851    62.830881    36.196634   -2246.4368   -308270.56 
    8790    1825.4019    165006.23     72.55177     72.55177    36.197093          120    1829.1622    2117.7375   -52625.574   -3945.9225   -2226.6166   -2393.7908     72.55177    62.831676    36.197093   -16226.225   -308237.06 
    8800    1825.8174    165012.49    72.552687    72.552688     36.19755          120    65649.344    65700.361    10141.219   -903.47096   -3059.0756    557.13774    72.552687    62.832471     36.19755    47163.641   -308238.77 
    8810    1844.2677    165018.75    72.553604    72.553605    36.198008          120    56168.918    56111.142   -6308.8115   -709.84305    -2276.118    1902.8022    72.553604    62.833265    36.198008     35323.75   -308277.67 
    8820    1807.6359    165025.01    72.554521    72.554522    36.198466          120   -5059.0571   -3389.0336   -62539.034   -3773.2752   -1974.8673   -356.66857    72.554521    62.834059    36.198466   -23662.375   -308203.14 
    8830    1846.9792    165031.26    72.555437    72.555438    36.198923          120    29965.541    31471.161   -20851.054   -3358.5132   -3109.8703   -1849.0209    72.555437    62.834853    36.198923    13528.549   -308285.89 
    8840    1804.9806     165037.5    72.556353    72.556353    36.199379          120    76436.568    73928.101    17117.656   -1062.8064   -3736.6356    642.21253    72.556353    62.835645    36.199379    55827.442    -308199.6 
    8850    1837.1146    165043.75    72.557268    72.557268    36.199836          120      24452.6    22699.145   -37912.954   -2153.2037   -2699.0075    2427.3295    72.557268    62.836438    36.199836     3079.597   -308267.99 
    8860    1810.9718    165049.99    72.558182    72.558183    36.200292          120   -2956.8533    600.04224   -54681.592   -3959.9684    -2692.745   -1049.6759    72.558182     62.83723    36.200292   -19012.801   -308215.01 
    8870    1822.0109    165056.22    72.559096    72.559096    36.200748          120    61911.607    60559.535    8045.6545   -1997.2142   -4336.5332   -2471.8377    72.559096    62.838021    36.200748    43505.599   -308238.74 
    8880    1833.5499    165062.46    72.560009     72.56001    36.201204          120    62064.025    56719.474   -38.011975   -938.04769   -4394.2186    1386.7323    72.560009    62.838812    36.201204    39581.829   -308263.35 
    8890    1809.4615    165068.69    72.560922    72.560923    36.201659          120   -2861.9243   -2419.7596   -60764.245   -2960.2647   -2950.2188    2134.3412    72.560922    62.839603    36.201659    -22015.31   -308214.36 
    8900    1854.5006    165074.91    72.561834    72.561835    36.202114          120    24765.285    26107.097   -27648.268   -2837.7403   -3131.3228   -2566.8314    72.561834    62.840392    36.202114    7741.3712   -308308.31 
    8910    1814.5178    165081.13    72.562745    72.562746    36.202569          120    76022.402    71698.708    18278.858   -871.34382   -4327.6887   -1776.9661    72.562745    62.841181    36.202569    55333.323   -308225.77 
    8920    1861.3251    165087.35    72.563656    72.563657    36.203023          120    29083.234    25419.606   -32042.357   -1325.1184   -4225.4444    1996.9249    72.563656     62.84197    36.203023    7486.8276   -308323.58 
    8930    1826.4237    165093.56    72.564566    72.564567    36.203477          120   -3480.7198   -3173.9203   -59984.501   -3357.5259   -2392.6553       266.07    72.564566    62.842759    36.203477   -22213.047   -308252.32 
    8940    1848.1821    165099.76    72.565476    72.565476    36.203931          120    58499.249    55762.318    3261.0298    -1650.485   -2118.1817   -2675.8454    72.565476    62.843546    36.203931    39174.199   -308298.66 
    8950    1845.4582    165105.97    72.566384    72.566385    36.204384          120    64036.466     59919.12    5251.6722   -291.18097   -3733.6279    -740.4955    72.566384    62.844333    36.204384    43069.086   -308294.18 
    8960    1826.5392    165112.17    72.567293    72.567294    36.204838          120      1339.49   -1312.3685   -58403.146   -3176.1814    -3428.596     1388.038    72.567293     62.84512    36.204838   -19458.675   -308256.44 
    8970    1856.2616    165118.37    72.568201    72.568201     36.20529          120    22749.802    20369.944   -33717.765   -3065.9727   -981.11744   -513.17027    72.568201    62.845906     36.20529    3133.9936   -308319.26 
    8980    1815.3357    165124.55    72.569107    72.569108    36.205743          120    75308.009    71959.488    18789.498   -78.374041   -1602.5252   -1765.5775    72.569107    62.846691    36.205743    55352.332   -308235.74 
    8990    1858.3979    165130.74    72.570014    72.570015    36.206195          120    34070.996     30906.38   -25388.864   -1665.0365   -3900.5093    249.94853    72.570014    62.847476    36.206195    13196.171   -308326.29 
    9000    1811.8933    165136.93     72.57092    72.570921    36.206647          120   -3135.6923   -5096.1663   -61730.035   -4520.8315   -2536.6004    1576.9259     72.57092    62.848261    36.206647   -23320.631   -308231.54 
    9010    1842.5926    165143.11    72.571825    72.571826    36.207099          120    54836.669    52115.706   -795.50032   -874.95726   -685.63613   -451.71802    72.571825    62.849045    36.207099    35385.625   -308296.34 
    9020    1821.8639    165149.29     72.57273    72.572731     36.20755          120    66699.664    63883.139    9826.5836    224.32763   -3238.2977   -1039.4411     72.57273    62.849829     36.20755    46803.129   -308254.93 
    9030    1813.9884    165155.46    72.573635    72.573636    36.208002          120     5009.066    2972.5287   -55315.888   -4027.4526   -3782.0316    1343.2325    72.573635    62.850612    36.208002   -15778.098   -308240.37 
    9040    1829.7966    165161.63    72.574539    72.574539    36.208453          120    17957.403    16353.432   -38768.009   -3081.9438   -1820.8565    1261.2685    72.574539    62.851395    36.208453   -1485.7244   -308274.63 
    9050    1795.3698     165167.8    72.575442    72.575442    36.208903          120    72790.713    70709.007    20092.761    1048.6082   -3075.1879   -877.88177    72.575442    62.852177    36.208903    54530.827    -308204.8 
    9060    1833.5126    165173.96    72.576345    72.576345    36.209354          120    38871.815    36232.652   -19531.413   -1118.4534   -4360.0707    266.20258    72.576345    62.852959    36.209354    18524.351   -308285.17 
    9070    1788.1832    165180.13    72.577247    72.577248    36.209804          120   -3277.7912    -4739.277   -64981.621   -4442.0305    -3339.494    2053.1749    72.577247    62.853741    36.209804   -24332.896   -308193.03 
    9080    1824.0593    165186.28    72.578149    72.578149    36.210254          120    47821.888    47844.372   -3784.5613   -547.98417   -3691.4789    212.55667    72.578149    62.854521    36.210254    30627.233   -308268.77 
    9090     1799.854    165192.43     72.57905    72.579051    36.210703          120    66467.388    65624.872    16112.229    898.76295   -4837.5311    211.49532     72.57905    62.855302    36.210703    49401.496   -308219.83 
    9100    1807.9792    165198.59    72.579951    72.579952    36.211153          120    9214.2481    7307.4126   -53939.733   -3065.3793   -3754.1092    2066.4226    72.579951    62.856082    36.211153   -12472.691   -308237.89 
    9110    1817.2445    165204.73    72.580851    72.580852    36.211602          120    12855.457    13437.794   -45974.733   -2426.7933   -3751.2323    1323.2328    72.580851    62.856862    36.211602   -6560.4939   -308258.56 
    9120     1796.764    165210.87     72.58175    72.581751    36.212051          120    66584.351     68265.13    21406.071    897.09498   -4623.3386    422.70979     72.58175     62.85764    36.212051    52085.184   -308217.06 
    9130    1834.1403    165217.01     72.58265     72.58265    36.212499          120    40735.063    41337.483   -14050.095   -1442.7146   -3398.1943    1629.6231     72.58265    62.858419    36.212499     22674.15   -308295.24 
    9140    1793.3202    165223.15    72.583548    72.583549    36.212948          120   -3164.3523   -3104.9688   -70625.943   -2595.6836   -2059.5698    1476.6569    72.583548    62.859197    36.212948   -25631.755   -308212.12 
    9150    1834.2879    165229.28    72.584446    72.584446    36.213395          120    41355.646    42650.852   -10343.519    1187.6265   -3361.5989    71.110613    72.584446    62.859975    36.213395    24554.326   -308297.67 
    9160    1807.2987     165235.4    72.585343    72.585343    36.213843          120    64558.712    67523.881    19419.623   -221.68865   -3237.0481    1007.7546    72.585343    62.860751    36.213843    50500.739    -308242.7 
    9170    1820.8357    165241.53    72.586239     72.58624     36.21429          120    11774.951    13328.006   -53570.938   -2446.1877    -955.0853    1238.0079    72.586239    62.861528     36.21429    -9489.327   -308272.18 
    9180    1821.6148    165247.65    72.587135    72.587136    36.214737          120    10373.543    9690.0631   -55051.788    1501.5914    -854.6789    389.12321    72.587135    62.862304    36.214737   -11662.727   -308275.02 
    9190    1803.1266    165253.76     72.58803     72.58803    36.215183          120    63775.843    65225.086    18153.582    2121.7844   -2889.7635    243.24925     72.58803    62.863078    36.215183    49051.504   -308238.34 
    9200    1830.3118    165259.87    72.588924    72.588925     36.21563          120    44366.655    47100.255   -10246.401   -1442.8924   -1892.0544    770.05791    72.588924    62.863853     36.21563    27073.503   -308296.12 
    9210    1785.8875    165265.97    72.589818    72.589819    36.216076          120   -888.51643    -2006.051   -73843.597    142.26149    641.50826    745.92502    72.589818    62.864627    36.216076   -25579.388   -308205.81 
    9220    1825.3118    165272.07    72.590711    72.590712    36.216521          120    38713.169    37941.263   -17461.194    3826.5324   -1364.3345    361.51089    72.590711      62.8654    36.216521    19731.079   -308288.67 
    9230    1787.6026    165278.16    72.591603    72.591604    36.216966          120    67690.562    69057.764    20380.654    1315.7535   -2478.5628   -105.62297    72.591603    62.866173    36.216966    52376.327   -308211.81 
    9240    1812.4067    165284.26    72.592495    72.592496    36.217411          120    17523.395    17748.618   -49579.399   -974.13862   -214.24743    499.52481    72.592495    62.866946    36.217411   -4769.1287   -308264.43 
    9250    1804.0626    165290.35    72.593387    72.593387    36.217856          120    7462.8169    7550.1082   -59732.605     2510.663    62.976826    1104.0028    72.593387    62.867718    36.217856    -14906.56   -308248.45 
    9260    1799.6788    165296.43    72.594277    72.594277      36.2183          120    62506.727    62773.942    13838.214    3598.6774   -1914.3058   -607.25561    72.594277    62.868488      36.2183    46372.961   -308240.04 
    9270    1828.4703    165302.51    72.595167    72.595167    36.218744          120    49917.037    49996.168   -5796.5501    368.42914   -1265.3088     -256.767    72.595167    62.869259    36.218744    31372.218    -308300.5 
    9280    1792.2479    165308.58    72.596056    72.596057    36.219188          120   -2407.6529   -337.63376   -72367.081   -190.09664   -475.80116    1155.8194    72.596056     62.87003    36.219188   -25037.456   -308226.56 
    9290    1838.2953    165314.65    72.596945    72.596945    36.219631          120     31927.19    34044.901   -24376.549    3140.2553   -1919.7893    159.88514    72.596945    62.870799    36.219631     13865.18   -308322.67 
    9300    1798.6411    165320.71    72.597832    72.597833    36.220074          120    69261.432    67703.357    19620.252    2662.6604   -1604.3774   -1291.9256    72.597832    62.871567    36.220074    52195.014   -308241.65 
    9310    1830.4598    165326.78    72.598719     72.59872    36.220517          120    19624.712    21056.192   -44248.818   -623.78948   -1379.2348    191.94864    72.598719    62.872336    36.220517   -1189.3048   -308309.29 
    9320    1806.4845    165332.83    72.599606    72.599606    36.220959          120    385.03101    5357.8989     -63739.8    421.71196   -2796.4748    913.04222    72.599606    62.873104    36.220959    -19332.29   -308261.23 
    9330    1810.6302    165338.88    72.600491    72.600492      36.2214          120    59211.129    58429.043    8339.1703    3144.3939   -2156.2086   -1144.4981    72.600491     62.87387      36.2214    41993.114   -308271.28 
    9340    1818.3983    165344.92    72.601376    72.601376    36.221842          120     53549.33    52568.011   -2299.2748    1443.1891   -1465.9489   -1147.8597    72.601376    62.874636    36.221842    34606.022   -308288.95 
    9350    1787.5932    165350.97     72.60226    72.602261    36.222283          120   -3920.0312     869.4232   -70099.879    -1538.842     -3239.04   -17.285904     72.60226    62.875402    36.222283   -24383.496   -308227.04 
    9360    1824.8726       165357    72.603143    72.603144    36.222724          120    26213.489    28505.094   -30971.124    884.33184   -3264.3577   -101.27287    72.603143    62.876167    36.222724    7915.8197   -308305.63 
    9370    1783.5434    165363.03    72.604025    72.604026    36.223164          120     70022.82    67845.835    17649.859    2570.7423   -1217.6633    -1156.337    72.604025    62.876931    36.223164    51839.505   -308220.82 
    9380    1824.2827    165369.05    72.604907    72.604907    36.223604          120    22348.287     24991.01   -39827.655   -569.00728   -2710.6062   -910.57103    72.604907    62.877694    36.223604    2503.8808    -308306.3 
    9390    1796.2567    165375.07    72.605788    72.605788    36.224043          120   -3513.7269    717.25113   -66931.531   -1748.2582   -4555.2328   -230.67839    72.605788    62.878457    36.224043   -23242.669   -308249.13 
    9400    1815.2088    165381.08    72.606667    72.606667    36.224482          120    55487.235     55022.74    768.59491    1263.5126   -1808.4366    96.537231    72.606667    62.879219    36.224482    37092.856   -308289.32 
    9410    1818.6091    165387.08    72.607546    72.607546     36.22492          120    55290.782    56652.703   -1515.6724    1194.9373   -1079.2897   -372.77732    72.607546     62.87998     36.22492    36809.271   -308297.47 
    9420    1800.2012    165393.08    72.608424    72.608424    36.225358          120    -4433.834     703.0211   -67811.361   -1449.0788   -4376.4986   -1011.0004    72.608424     62.88074    36.225358   -23847.391   -308260.67 
    9430     1827.977    165399.07      72.6093    72.609301    36.225796          120    20771.281    22977.766   -38855.954   -548.86906   -3226.5604    399.53389      72.6093    62.881499    36.225796    1631.0313   -308319.89 
    9440    1789.8729    165405.06    72.610176    72.610176    36.226232          120     68327.19    69335.186    13996.082    1502.9579    288.89681     1070.019    72.610176    62.882258    36.226232    50552.819   -308242.49 
    9450    1821.3105    165411.04    72.611051    72.611052    36.226669          120    24042.802    29568.345   -34084.153     883.8931   -1485.1525   -471.46272    72.611051    62.883015    36.226669    6508.9981   -308309.62 
    9460    1781.8659    165417.01    72.611925    72.611926    36.227105          120   -6556.7277   -1590.0072   -68350.746   -872.25045   -3288.4927    -786.4966    72.611925    62.883772    36.227105    -25499.16   -308230.08 
    9470    1798.0731    165422.97    72.612798    72.612798     36.22754          120    51377.631     52911.07   -5036.4933    613.87138    40.479958    1154.9537    72.612798    62.884528     36.22754    33084.069   -308265.64 
    9480    1783.9053    165428.93    72.613669     72.61367    36.227975          120    57174.861    60860.734     3940.119    1792.4416    1897.2648    900.60698    72.613669    62.885283    36.227975    40658.571   -308238.16 
    9490    1766.2488    165434.89    72.614541    72.614541     36.22841          120   -3420.0253    4575.9468   -62322.787     646.2447   -1126.6995   -1110.7179    72.614541    62.886038     36.22841   -20388.955   -308203.91 
    9500    1784.7824    165440.84    72.615411    72.615412    36.228844          120    16421.619    19954.223   -43435.008   -150.64725   -694.10602   -552.16208    72.615411    62.886791    36.228844   -2353.0554   -308244.09 
    9510    1749.2684    165446.78     72.61628    72.616281    36.229278          120    68216.476    68753.858    14649.018    1224.9101    2722.2249    974.12163     72.61628    62.887544    36.229278    50539.784   -308171.72 
    9520    1786.0428    165452.71    72.617149    72.617149    36.229711          120    27693.342    35022.377   -26463.712    1352.7229    1723.6968   -46.974027    72.617149    62.888296    36.229711    12084.002   -308249.15 
    9530    1752.1348    165458.65    72.618017    72.618017    36.230144          120   -8857.0006   -1954.8267   -68895.879   -580.82749   -669.95302   -1036.3563    72.618017    62.889048    36.230144   -26569.235    -308180.1 
    9540    1783.2222    165464.57    72.618883    72.618883    36.230576          120    48162.695    47603.371   -9780.5985    649.22148    1163.7148   -278.21617    72.618883    62.889798    36.230576    28661.823   -308245.29 
    9550    1775.7307    165470.48    72.619749    72.619749    36.231008          120    59711.836     62618.15    7620.8622    1552.4202    2609.5369    90.682685    72.619749    62.890548    36.231008    43316.949    -308230.1 
    9560    1777.8346     165476.4    72.620614    72.620614     36.23144          120    -1826.792     6975.668   -58421.709   -1021.8253    114.68205   -214.09026    72.620614    62.891297     36.23144   -17757.611   -308235.24 
    9570     1801.819     165482.3    72.621478    72.621478    36.231871          120    11931.955    13925.487   -49184.731   -928.20629   -521.17031   -1089.8422    72.621478    62.892045    36.231871   -7775.7627   -308285.37 
    9580    1779.1658     165488.2     72.62234    72.622341    36.232301          120    65748.935    66675.945    11572.538    1825.8228    1178.5344   -1238.5486     72.62234    62.892792    36.232301    47999.139   -308238.63 
    9590     1821.767     165494.1    72.623202    72.623203    36.232732          120    30859.878    38729.838   -21641.163    75.790021    454.75983    -659.0927    72.623202    62.893539    36.232732    15982.851   -308327.58 
    9600    1782.5977    165499.98    72.624064    72.624064    36.233161          120   -9984.7124   -4561.8236   -70767.513     -2556.14   -1298.1733    -903.7311    72.624064    62.894285    36.233161   -28438.016   -308247.38 
    9610    1819.5802    165505.86    72.624923    72.624924     36.23359          120    41505.743    43643.297    -16432.94     536.2247   -132.18882    -1858.016    72.624923    62.895029     36.23359    22905.367   -308325.15 
    9620    1795.3196    165511.73    72.625782    72.625783    36.234019          120    59242.768    66371.972    9000.0886    2019.0102    119.92671   -1776.1343    72.625782    62.895773    36.234019     44871.61   -308276.19 
    9630    1800.1449     165517.6     72.62664    72.626641    36.234447          120    2042.8582     9606.123   -55564.554   -1376.5959   -1531.5357     -1101.51     72.62664    62.896516    36.234447   -14638.524   -308287.66 
    9640    1805.3421    165523.46    72.627497    72.627498    36.234874          120    6778.2822     9775.998   -54624.163   -1716.0971   -658.04035   -1280.5703    72.627497    62.897258    36.234874   -12689.961   -308299.86 
    9650    1781.3647    165529.31    72.628353    72.628353    36.235301          120    60590.267    66742.748    9573.7674    1816.6274    166.46349   -2002.2483    72.628353    62.897999    36.235301    45635.594   -308251.57 
    9660    1812.7817    165535.15    72.629208    72.629208    36.235728          120    34935.284    43889.371   -17275.811    1948.0748   -985.68197   -2046.0965    72.629208    62.898739    36.235728    20516.281   -308318.05 
    9670    1769.6611    165540.99    72.630062    72.630062    36.236154          120   -9551.6644    -5068.333    -72145.52   -1380.9287   -1378.1711     -1132.34    72.630062    62.899479    36.236154   -28921.839      -308230 
    9680    1810.6735    165546.82    72.630914    72.630915    36.236579          120    35234.953    38570.052   -20426.457   -375.56901    569.38776   -1895.7555    72.630914    62.900217    36.236579    17792.849   -308316.11 
    9690    1779.3189    165552.64    72.631766    72.631766    36.237004          120    59733.077    67487.224    11558.044    3473.6789    -64.35987   -2794.3124    72.631766    62.900955    36.237004    46259.448   -308251.69 
    9700    1802.5875    165558.46    72.632617    72.632617    36.237428          120    6592.1649     13337.01   -52993.168     2165.927   -1217.2579   -1736.1185    72.632617    62.901692    36.237428   -11021.331    -308300.8 
    9710    1798.5798    165564.27    72.633466    72.633467    36.237852          120    3109.0884    4892.2325   -58891.523   -1266.8242     403.6479   -1780.0568    72.633466    62.902427    36.237852   -16963.401   -308293.64 
    9720    1792.3879    165570.07    72.634314    72.634315    36.238275          120     58053.64    61828.478    8222.1012    1767.2637    523.25335   -3135.9362    72.634314    62.903162    36.238275    42701.407   -308281.14 
    9730    1818.9929    165575.87    72.635162    72.635162    36.238698          120    40101.727    47305.698   -13624.798    4800.0858   -890.06027   -3317.2755    72.635162    62.903896    36.238698    24594.209   -308337.24 
    9740    1782.9766    165581.66    72.636008    72.636009    36.239121          120   -7712.3588   -4373.1684   -72918.496    1108.0154   -407.30682   -2038.0622    72.636008    62.904629    36.239121   -28334.675   -308263.92 
    9750    1822.5433    165587.44    72.636853    72.636854    36.239542          120    31067.685    31833.173   -24391.252   -345.02973    339.87413   -3082.7519    72.636853    62.905361    36.239542    12836.536   -308346.77 
    9760    1787.8002    165593.21    72.637697    72.637698    36.239963          120     61851.63    67551.882    13800.573    3971.8536   -931.46605   -4267.9223    72.637697    62.906092    36.239963    47734.695   -308275.67 
    9770    1812.8372    165598.98    72.638541    72.638542    36.240384          120    12776.498    18211.127   -48945.711    3750.9684   -1055.1013   -3219.8493    72.638541    62.906822    36.240384   -5986.0289   -308328.61 
    9780    1797.1192    165604.74    72.639383    72.639384    36.240804          120    694.29489    1652.7663   -61494.023   -355.91156   -686.96573    -2888.831    72.639383    62.907552    36.240804   -19715.654   -308297.26 
    9790    1798.7416    165610.49    72.640224    72.640225    36.241224          120     54424.43    58847.067    7671.2501    1661.1795   -1495.8904   -3725.8964    72.640224     62.90828    36.241224    40314.249   -308301.53 
    9800    1812.2238    165616.24    72.641065    72.641065    36.241643          120    44791.625    51080.069    -7123.779    4081.7014   -1613.5656     -3762.41    72.641065    62.909008    36.241643    29582.638   -308330.71 
    9810    1784.8128    165621.98    72.641904    72.641905    36.242062          120   -5556.7361   -2571.4217   -71581.118    403.68907   -736.65892   -2843.1377    72.641904    62.909735    36.242062   -26569.758   -308275.28 
    9820    1819.4069    165627.71    72.642742    72.642743     36.24248          120    24524.451    28335.614   -28752.813    31.670346   -1829.8055   -3255.3792    72.642742    62.910461     36.24248    8035.7504   -308347.62 
    9830    1786.0252    165633.44    72.643579     72.64358    36.242898          120    60764.239    67798.412    17268.899    3395.8753    -2659.197   -2749.1787    72.643579    62.911186    36.242898    48610.517   -308279.23 
    9840    1816.9078    165639.16    72.644416    72.644417    36.243315          120    16843.688    21961.463   -43308.981    990.87499   -685.74424   -2583.5923    72.644416     62.91191    36.243315   -1501.2768   -308344.18 
    9850    1797.8792    165644.88    72.645252    72.645252    36.243732          120   -3016.1213    787.54953   -66115.414    -1674.054   -338.95979    -2686.942    72.645252    62.912634    36.243732   -22781.329   -308305.66 
    9860    1805.8193    165650.58    72.646086    72.646086    36.244148          120    48800.452    56900.126    3879.5947         2536    -3195.348   -2111.4898    72.646086    62.913356    36.244148    36526.724   -308323.04 
    9870    1817.1341    165656.29    72.646919     72.64692    36.244564          120    47008.541     53947.28    -1655.604    2344.9397   -2566.8789   -1875.4177    72.646919    62.914078    36.244564    33100.072   -308347.33 
    9880    1792.1418    165661.98    72.647752    72.647752     36.24498          120   -4408.2777   -903.42527   -69960.029   -3111.8445    538.08581   -1887.2444    72.647752    62.914799     36.24498   -25090.577   -308297.14 
    9890    1822.1265    165667.67    72.648583    72.648584    36.245394          120    19086.721    25731.404    -35494.02    30.569122   -1593.4789   -2336.5535    72.648583    62.915519    36.245394     3108.035   -308360.74 
    9900    1784.7403    165673.35    72.649413    72.649414    36.245808          120    60429.453    68983.495    16682.867    3825.9306   -3689.6335   -1947.1369    72.649413    62.916238    36.245808    48698.605   -308284.56 
    9910    1811.7158    165679.02    72.650243    72.650243    36.246222          120    21239.083    26167.445   -36592.073   -1352.8237   -1300.5408   -1529.9835    72.650243    62.916956    36.246222    3604.8182   -308341.94 
    9920    1780.8526    165684.69    72.651071    72.651072    36.246636          120   -4257.0588   -1043.7768   -67405.019   -3218.3176    376.46355   -1426.0881    72.651071    62.917674    36.246636   -24235.285   -308279.64 
    9930    1792.6766    165690.35    72.651899    72.651899    36.247048          120    47577.099    53987.196    -916.6806    2903.8122   -2383.5279   -2581.8964    72.651899     62.91839    36.247048    33549.205   -308305.14 
    9940    1793.6641    165696.01    72.652725    72.652726    36.247461          120    51605.778    58717.753    2225.1796    2213.3138   -3177.9376   -2165.5187    72.652725    62.919106    36.247461    37516.237   -308308.14 
    9950    1777.3947    165701.66    72.653551    72.653552    36.247873          120   -1877.8951    2187.5745   -65666.045   -3259.6438   -472.88921    117.14888    72.653551    62.919822    36.247873   -21785.455   -308275.35 
    9960    1810.1054     165707.3    72.654376    72.654377    36.248285          120    17376.151    20349.506   -40350.073   -324.29892   -442.65194   -649.56217    72.654376    62.920536    36.248285   -874.80562    -308343.8 
    9970    1777.2482    165712.94      72.6552    72.655201    36.248696          120    62177.443    68085.123    15275.104    3109.9185   -2857.4487   -2730.9398      72.6552     62.92125    36.248696    48512.557   -308276.22 
    9980    1818.6051    165718.57    72.656023    72.656024    36.249106          120    24385.773    32605.167   -31198.045   -593.95965   -2567.0226   -676.12169    72.656023    62.921963    36.249106    8597.6318   -308362.79 
    9990    1785.2103     165724.2    72.656846    72.656846    36.249517          120   -6253.1727   -1613.3003   -69827.291   -2408.4603   -400.77227    2164.0202    72.656846    62.922675    36.249517   -25897.921   -308294.65 
   10000    1810.3483    165729.82    72.657667    72.657667    36.249926          120    45448.528    48201.718   -5690.8817    823.56798   -1383.0683   -669.48358    72.657667    62.923386    36.249926    29319.788   -308347.66 
Loop time of 2972.58 on 1 procs for 10000 steps with 15232 atoms

Performance: 0.029 ns/day, 825.718 hours/ns, 3.364 timesteps/s
100.0% CPU use with 1 MPI tasks x no OpenMP threads

MPI task timing breakdown:
Section |  min time  |  avg time  |  max time  |%varavg| %total
---------------------------------------------------------------
Pair    | 2573.7     | 2573.7     | 2573.7     |   0.0 | 86.58
Bond    | 0.17126    | 0.17126    | 0.17126    |   0.0 |  0.01
Kspace  | 107.91     | 107.91     | 107.91     |   0.0 |  3.63
Neigh   | 225.6      | 225.6      | 225.6      |   0.0 |  7.59
Comm    | 3.0551     | 3.0551     | 3.0551     |   0.0 |  0.10
Output  | 0.10688    | 0.10688    | 0.10688    |   0.0 |  0.00
Modify  | 61.12      | 61.12      | 61.12      |   0.0 |  2.06
Other   |            | 0.8714     |            |       |  0.03

Nlocal:    15232 ave 15232 max 15232 min
Histogram: 1 0 0 0 0 0 0 0 0 0
Nghost:    47554 ave 47554 max 47554 min
Histogram: 1 0 0 0 0 0 0 0 0 0
Neighs:    1.04572e+07 ave 1.04572e+07 max 1.04572e+07 min
Histogram: 1 0 0 0 0 0 0 0 0 0

Total # of neighbors = 10457200
Ave neighs/atom = 686.528
Ave special neighs/atom = 0.0504202
Neighbor list builds = 770
Dangerous builds = 0
thermo		0
reset_timestep	0
fix		2 all ave/time 1 1 500 c_thermo_temp c_thermo_pe c_thermo_press v_myVol v_myCella v_myCellb v_myCellc v_myCellgamma file data/current_run/cp_rawTemp${probeTemp}.dat # Potential energy, parameters, volume
fix		2 all ave/time 1 1 500 c_thermo_temp c_thermo_pe c_thermo_press v_myVol v_myCella v_myCellb v_myCellc v_myCellgamma file data/current_run/cp_rawTemp1800.dat 
run 		100000
PPPM initialization ...
  using 12-bit tables for long-range coulomb (../kspace.cpp:321)
  G vector (1/distance) = 0.202352
  grid = 36 50 24
  stencil order = 5
  estimated absolute RMS force accuracy = 0.0010033
  estimated relative force accuracy = 6.96753e-05
  using double precision FFTs
  3d grid and FFT values/proc = 65395 43200
Per MPI rank memory allocation (min/avg/max) = 163 | 163 | 163 Mbytes
Step Temp Volume Cella Cellb Cellc CellGamma Pxx Pyy Pzz Pxy Pxz Pyz Lx Ly Lz Press PotEng 
       0    1810.3483    165729.82    72.657667    72.657667    36.249926          120    45442.979    48194.838   -5691.8119    823.33277   -1382.9978   -669.52722    72.657667    62.923386    36.249926    29315.335   -308347.74 
  100000    1802.0531    169318.63    73.178383    73.178384    36.509719          120    16822.933    20520.743    -37124.87    305.71408    2878.1494    5011.3538    73.178383    63.374339    36.509719    72.935284   -308412.77 
Loop time of 27497.3 on 1 procs for 100000 steps with 15232 atoms

Performance: 0.031 ns/day, 763.813 hours/ns, 3.637 timesteps/s
100.0% CPU use with 1 MPI tasks x no OpenMP threads

MPI task timing breakdown:
Section |  min time  |  avg time  |  max time  |%varavg| %total
---------------------------------------------------------------
Pair    | 23459      | 23459      | 23459      |   0.0 | 85.31
Bond    | 1.6783     | 1.6783     | 1.6783     |   0.0 |  0.01
Kspace  | 1086.5     | 1086.5     | 1086.5     |   0.0 |  3.95
Neigh   | 2301.5     | 2301.5     | 2301.5     |   0.0 |  8.37
Comm    | 30.127     | 30.127     | 30.127     |   0.0 |  0.11
Output  | 0.00010204 | 0.00010204 | 0.00010204 |   0.0 |  0.00
Modify  | 609.97     | 609.97     | 609.97     |   0.0 |  2.22
Other   |            | 8.606      |            |       |  0.03

Nlocal:    15232 ave 15232 max 15232 min
Histogram: 1 0 0 0 0 0 0 0 0 0
Nghost:    47208 ave 47208 max 47208 min
Histogram: 1 0 0 0 0 0 0 0 0 0
Neighs:    1.02341e+07 ave 1.02341e+07 max 1.02341e+07 min
Histogram: 1 0 0 0 0 0 0 0 0 0

Total # of neighbors = 10234101
Ave neighs/atom = 671.882
Ave special neighs/atom = 0.0504202
Neighbor list builds = 7939
Dangerous builds = 0
unfix		2
variable	probeTemp delete

print		" "
 
print		"All done!"
All done!
Total wall time: 8:30:22
