LAMMPS (16 Mar 2018)
# Find minimum energy for Beryl

#----- Initialize Simulation -----
clear
units 		metal
boundary 	p p p
atom_style 	full
bond_style	none
variable	etol equal 1e-25
variable 	ftol equal 1e-25
variable 	maxiter equal 5000
variable 	maxeval equal 10000

#----- Create Atoms -----
read_data 	beryl_water_100.mod
  triclinic box = (0 0 0) to (9.208 7.97436 18.376) with tilt (-4.604 0 0)
  1 by 1 by 1 MPI processor grid
  reading atoms ...
  128 atoms
  scanning bonds ...
  2 = max bonds/atom
  scanning angles ...
  1 = max angles/atom
  reading bonds ...
  8 bonds
  reading angles ...
  4 angles
  2 = max # of 1-2 neighbors
  1 = max # of 1-3 neighbors
  1 = max # of 1-4 neighbors
  2 = max # of special neighbors
replicate 	1  1  1
  triclinic box = (0 0 0) to (9.208 7.97436 18.376) with tilt (-4.604 0 0)
  1 by 1 by 1 MPI processor grid
  128 atoms
  8 bonds
  4 angles
  2 = max # of 1-2 neighbors
  1 = max # of 1-3 neighbors
  1 = max # of 1-4 neighbors
  2 = max # of special neighbors
  Time spent = 9.41753e-05 secs

#----- Define Interatomic Potential -----
include		potential_main.mod
kspace_style 	pppm 1.0e-4

# Neighbor Style
neighbor	0.3 bin
neigh_modify	delay 0 every 1 check yes

# Minimization style
min_style	cg

# Setup Output
thermo		10
thermo_style	custom	step temp vol cella cellb cellc cellgamma pxx pyy pzz pxy pxz pyz lx ly lz press pe #c_eatoms
thermo_modify	norm no
variable 	myVol equal vol
variable	myCella equal cella
variable	myCellb equal cellb
variable	myCellc equal cellc
variable	myCellgamma equal cellgamma
include 	potential_beryl.mod
# Potential Paramters
pair_style 	hybrid/overlay morse 5.5 buck 5.5 lj/cut/coul/long 5.5 15.0
pair_coeff    1    1 morse     		  0 	       0           0  # Be Be
pair_coeff    1    1 buck                 0            1           -201.0
pair_coeff    1    1 lj/cut/coul/long	  10120.	0.413
pair_coeff    1    2 morse     		  0 	       0           0  # Be Al
pair_coeff    1    2 buck                 0            1           0
pair_coeff    1    2 lj/cut/coul/long	  0	       0
pair_coeff    1    3 morse     		  0 	       0           0  # Al Si
pair_coeff    1    3 buck                 0            1           0
pair_coeff    1    3 lj/cut/coul/long	  0	       0
pair_coeff    1    4 morse 		  0.239919     2.527420    1.815405	#Be O
pair_coeff    1    4 buck                 0.000000     1.000000   -46.00000
pair_coeff    1    4 lj/cut/coul/long     529.000      0.528
pair_coeff    2    2 morse     		  0 	       0           0  # Al Al
pair_coeff    2    2 buck                 0            1           -492.
pair_coeff    2    2 lj/cut/coul/long	  60423		0.356
pair_coeff    2    3 morse     		  0 	       0           0  # Al si
pair_coeff    2    3 buck                 0            1           0
pair_coeff    2    3 lj/cut/coul/long	  0	       0
pair_coeff    2    4 morse 		  0.361581     1.900442    2.164818	#Al O
pair_coeff    2    4 buck                 0.000000     1.000000   -71.5
pair_coeff    2    4 lj/cut/coul/long     1420.0	0.482
pair_coeff    3    3 morse     		  0 	       0           0  # Si Si
pair_coeff    3    3 buck                 0            1           -282.
pair_coeff    3    3 lj/cut/coul/long	  19730		0.391
pair_coeff    3    4 morse 		  0.340554     2.006700    2.100000	#Si O
pair_coeff    3    4 buck                 0.000000     1.000000   -60.5
pair_coeff    3    4 lj/cut/coul/long     916.		0.504
pair_coeff    4    4 morse     		  0.042395     1.379316    3.618701  # O O
pair_coeff    4    4 buck                 0.000000     1.000000   -16.7
pair_coeff    4    4 lj/cut/coul/long	  3.16		1.05
include 	potential_water.mod
# Potential Paramters

pair_coeff    1    6 morse     		  0. 	       0.           0.  		# Ow Be
pair_coeff    1    6 buck                 0            1           -354.5
pair_coeff    1    6 lj/cut/coul/long	  39.637	1.1435
pair_coeff    2    6 morse     		  0 	       0           0  		# Ow Al
pair_coeff    2    6 buck                 0            1           -554.6
pair_coeff    2    6 lj/cut/coul/long	  96.854	1.0616
pair_coeff    3    6 morse     		  0 	       0           0  		# Ow Si
pair_coeff    3    6 buck                 0            1           -419.9
pair_coeff    3    6 lj/cut/coul/long	  55.345	1.1126
pair_coeff    4    6 morse     		  0 	       0           0  		# Ow O
pair_coeff    4    6 buck                 0            1           -102.9
pair_coeff    4    6 lj/cut/coul/long	  0.70042	1.8233
pair_coeff    5    6 morse     		  0 	       0           0  # Hw Hw
pair_coeff    5    6 buck                 0            1           0
pair_coeff    5    6 lj/cut/coul/long	  0.000	      0.0
pair_coeff    6    6 morse     		  0 	       0           0  		# Ow Ow
pair_coeff    6    6 buck                 0            1           -625.4
pair_coeff    6    6 lj/cut/coul/long	  0.15525	3.166
pair_coeff    1    5 morse     		  0 	       0           0  # Hw Hw
pair_coeff    1    5 buck                 0            1           0
pair_coeff    1    5 lj/cut/coul/long	  0.000	      0.0
pair_coeff    2    5 morse     		  0 	       0           0  # Hw Hw
pair_coeff    2    5 buck                 0            1           0
pair_coeff    2    5 lj/cut/coul/long	  0.000	      0.0
pair_coeff    3    5 morse     		  0 	       0           0  # Hw Hw
pair_coeff    3    5 buck                 0            1           0
pair_coeff    3    5 lj/cut/coul/long	  0.000	      0.0
pair_coeff    4    5 morse     		  0 	       0           0  # Hw Hw
pair_coeff    4    5 buck                 0            1           0
pair_coeff    4    5 lj/cut/coul/long	  0.000	      0.0
pair_coeff    5    5 morse     		  0 	       0           0  # Hw Hw
pair_coeff    5    5 buck                 0            1           0
pair_coeff    5    5 lj/cut/coul/long	  0.000	      0.0



bond_style	harmonic
angle_style	harmonic
dihedral_style	none
improper_style	none

bond_coeff	1 1000.00 1.000
angle_coeff	1 100.0 109.47



#------ Define Settings -----

# ----- Run Minimization -----

fix BRX all box/relax iso 1.013

dump MIN all custom 1 min.lammpstrj id type element x y z ix iy iz

minimize	1e-6 1e-6 5000 10000 # Performs actual minimization
PPPM initialization ...
WARNING: System is not charge neutral, net charge = -0.0032 (../kspace.cpp:302)
  using 12-bit tables for long-range coulomb (../kspace.cpp:321)
  G vector (1/distance) = 0.20816
  grid = 6 10 10
  stencil order = 5
  estimated absolute RMS force accuracy = 0.000561113
  estimated relative force accuracy = 3.89671e-05
  using double precision FFTs
  3d grid and FFT values/proc = 2475 600
Neighbor list info ...
  update every 1 steps, delay 0 steps, check yes
  max neighbors/atom: 2000, page size: 100000
  master list distance cutoff = 15.3
  ghost atom cutoff = 15.3
  binsize = 7.65, bins = 2 2 3
  3 neighbor lists, perpetual/occasional/extra = 3 0 0
  (1) pair morse, perpetual
      attributes: half, newton on
      pair build: half/bin/newton/tri
      stencil: half/bin/3d/newton/tri
      bin: standard
  (2) pair buck, perpetual, copy from (1)
      attributes: half, newton on
      pair build: copy
      stencil: none
      bin: none
  (3) pair lj/cut/coul/long, perpetual, copy from (1)
      attributes: half, newton on
      pair build: copy
      stencil: none
      bin: none
Per MPI rank memory allocation (min/avg/max) = 10.48 | 10.48 | 10.48 Mbytes
Step Temp Volume Cella Cellb Cellc CellGamma Pxx Pyy Pzz Pxy Pxz Pyz Lx Ly Lz Press PotEng 
       0            0    1349.3116        9.208    9.2080001       18.376          120   -204066.46    -202701.5   -274823.33    21.640819    563.65393   -195.50241        9.208     7.974362       18.376    -227197.1   -2412.7728 
      10            0    1345.2677     9.198792    9.1987921    18.357624          120   -192105.32   -194689.96    -263579.6    2314.3001    5700.3666   -2238.1374     9.198792    7.9663876    18.357624   -216791.63   -2413.6195 
      20            0    1341.2319     9.189584    9.1895841    18.339248          120   -179016.12   -185542.05   -251977.24    4599.3179    10828.162   -4273.3815     9.189584    7.9584133    18.339248    -205511.8   -2414.1475 
      30            0    1337.2041     9.180376    9.1803761    18.320872          120   -165970.41   -176435.11   -240538.33    6876.6957    15944.218   -6298.7299     9.180376    7.9504389    18.320872   -194314.62   -2414.6793 
      40            0    1333.1845     9.171168    9.1711681    18.302496          120   -152795.74   -167194.18   -228938.34    9143.3959    21046.091   -8313.7501     9.171168    7.9424646    18.302496   -182976.09   -2415.1567 
      50            0    1329.1729      9.16196    9.1619601     18.28412          120   -139560.34   -157879.56   -217220.57    11397.132    26128.991    -10314.86      9.16196    7.9344902     18.28412   -171553.49   -2415.5992 
      60            0    1325.1694     9.152752    9.1527521    18.265744          120   -126414.65   -148636.76   -205873.63    13635.847    31186.871   -12300.271     9.152752    7.9265158    18.265744   -160308.35   -2416.0568 
      70            0    1321.1739     9.143544    9.1435441    18.247368          120   -113159.05   -139269.69   -194182.27    15851.881    36213.202   -14265.589     9.143544    7.9185415    18.247368   -148870.34   -2416.4524 
      80            0    1317.1865     9.134336    9.1343361    18.228992          120   -99906.147   -129881.25   -182458.07    18044.724    41201.202    -16207.04     9.134336    7.9105671    18.228992   -137415.16   -2416.8202 
      90            0     1313.207     9.125128    9.1251281    18.210616          120   -86627.511   -120435.36   -170670.03    20207.617    46138.419   -18119.409     9.125128    7.9025927    18.210616   -125910.97   -2417.1579 
     100            0    1309.2357      9.11592    9.1159201     18.19224          120   -73594.117   -111193.88   -158926.07    22335.509     51014.24   -19995.621      9.11592    7.8946184     18.19224   -114571.36   -2417.5044 
     110            0    1305.2723     9.106712    9.1067121    18.173864          120   -60387.068   -101731.51    -147298.1    24415.045    55811.035   -21827.474     9.106712     7.886644    18.173864   -103138.89    -2417.796 
     120            0    1301.3169     9.097504    9.0975041    18.155488          120   -47291.806   -92314.659   -135734.63    26435.774    60506.255   -23603.364     9.097504    7.8786697    18.155488   -91780.366   -2418.0669 
     130            0    1297.3695     9.088296    9.0882961    18.137112          120   -34299.139   -82916.317   -124282.08     28383.68    65069.988   -25307.668     9.088296    7.8706953    18.137112   -80499.179   -2418.3153 
     140            0    1293.4302     9.079088    9.0790881    18.118736          120   -21525.316   -73622.457   -112946.22     30233.66    69461.109   -26918.435     9.079088    7.8627209    18.118736   -69364.663   -2418.5442 
     150            0    1289.4988      9.06988    9.0698801     18.10036          120   -9057.1354   -64479.712   -101930.86    31953.479    73619.318   -28402.451      9.06988    7.8547466     18.10036   -58489.236   -2418.7638 
     160            0    1285.5753     9.060672    9.0606721    18.081984          120    2948.1975   -55587.945   -91370.486    33492.583    77454.301    -29712.76     9.060672    7.8467722    18.081984   -48003.411   -2418.9777 
     170            0    1281.6599     9.051464    9.0514641    18.063608          120    14313.907   -47031.297   -81401.884    34774.986    80831.102   -30779.317     9.051464    7.8387978    18.063608   -38039.758   -2419.1906 
     180            0    1277.7524     9.042256    9.0422561    18.045232          120    24588.794   -39107.326   -72323.577    35680.464    83524.656   -31482.749     9.042256    7.8308235    18.045232    -28947.37   -2419.4216 
     190            0    1273.8528     9.033048    9.0330481    18.026856          120    33250.111   -32122.384    -64726.06    36020.627    85200.525   -31644.567     9.033048    7.8228491    18.026856   -21199.444   -2419.6888 
     200            0    1269.9612      9.02384    9.0238401     18.00848          120    39565.791    -26519.35   -59327.641    35559.684    85429.693   -31040.696      9.02384    7.8148748     18.00848   -15427.067   -2420.0227 
     210            0    1266.0776     9.014632    9.0146321    17.990104          120    43177.799   -22488.078    -56288.57    34158.633    83962.552   -29540.121     9.014632    7.8069004    17.990104   -11866.283   -2420.4181 
     220            0    1262.2018     9.005424    9.0054241    17.971728          120    44657.814   -19704.981   -55087.386    32032.385    81176.725   -27350.034     9.005424     7.798926    17.971728   -10044.851   -2420.8539 
     230            0     1258.334     8.996216    8.9962161    17.953352          120    45181.911   -17415.782   -54692.846    29553.008    77727.498   -24829.251     8.996216    7.7909517    17.953352   -8975.5726   -2421.2838 
     240            0    1254.4741     8.987008    8.9870081    17.934976          120    45365.939   -15280.815   -54603.446    26957.697    74028.969   -22208.299     8.987008    7.7829773    17.934976   -8172.7741   -2421.6965 
     250            0    1250.6221       8.9778    8.9778001      17.9166          120    45382.902   -13213.256    -54513.71    24339.883    70234.274   -19579.593       8.9778     7.775003      17.9166   -7448.0211   -2422.0966 
     260            0    1246.7779     8.968592    8.9685921    17.898224          120    45659.431   -11065.175   -55667.438    21932.214     66752.74   -17167.571     8.968592    7.7670286    17.898224    -7024.394   -2422.7368 
     270            0    1242.9417     8.959384    8.9593841    17.879848          120    45938.512   -8572.4399    -55428.48    19351.463    62850.263   -14604.394     8.959384    7.7590542    17.879848   -6020.8028    -2423.059 
     280            0    1239.1133     8.950176    8.9501761    17.861472          120    45853.283   -6144.0189   -55460.534    16668.034    58614.236   -11967.286     8.950176    7.7510799    17.861472    -5250.423   -2423.3581 
     290            0    1235.2929     8.940968    8.9409681    17.843096          120    45641.193   -3621.2889   -55523.682     13990.03    54192.133   -9364.2649     8.940968    7.7431055    17.843096   -4501.2595    -2423.633 
     300            0    1231.4802      8.93176    8.9317601     17.82472          120    45281.887   -971.33242   -55682.352    11345.208    49557.213    -6829.235      8.93176    7.7351311     17.82472    -3790.599   -2423.8892 
     310            0    1227.6754     8.922552    8.9225521    17.806344          120    44721.554    1875.9325   -55773.885    8735.8219    44603.856   -4377.5136     8.922552    7.7271568    17.806344   -3058.7997    -2424.119 
     320            0    1223.8785     8.913344    8.9133441    17.787968          120    43932.441    5019.4982   -55985.202    6214.3614     39263.19   -2083.7693     8.913344    7.7191824    17.787968   -2344.4207   -2424.3339 
     330            0    1220.0894     8.904136    8.9041361    17.769592          120    42717.837    8528.8181   -56235.468    3842.7301    33315.987     -37.0607     8.904136    7.7112081    17.769592   -1662.9374   -2424.5431 
     340            0    1216.3082     8.894928    8.8949281    17.751216          120     40801.92    12565.494   -56481.077    1804.8937    26605.797    1520.0171     8.894928    7.7032337    17.751216   -1037.8881   -2424.7909 
     350            0    1212.5347      8.88572    8.8857201     17.73284          120    37612.526    17703.132   -56990.895    307.68453    18174.317    2233.5801      8.88572    7.6952593     17.73284   -558.41226   -2425.0759 
     360            0    1209.5216    8.8783536    8.8783537    17.718139          120    461.98846     12700.63   -80567.785   -5188.3962   -14206.959    4639.8015    8.8783536    7.6888798    17.718139   -22468.389   -2425.8112 
     370            0    1205.7622    8.8691456    8.8691457    17.699763          120    19410.397    26433.479    -63474.82   -2068.5686   -7386.0123    1843.7577    8.8691456    7.6809055    17.699763   -5876.9812    -2425.856 
     380            0    1205.0112     8.867304    8.8673041    17.696088          120    29293.873    31574.107   -53130.018    484.36533   -1541.5113   -398.36154     8.867304    7.6793106    17.696088    2579.3206   -2426.0081 
     390            0    1206.5134    8.8709872    8.8709873    17.703438          120    24845.746    23459.342    -51048.48    147.06335    740.10507    318.92055    8.8709872    7.6825004    17.703438   -914.46376   -2426.5703 
     400            0    1205.7622    8.8691456    8.8691457    17.699763          120    26079.744    24015.688   -47107.491    406.19614    1287.9165    102.90854    8.8691456    7.6809055    17.699763    995.98019    -2426.795 
     410            0    1205.7622    8.8691456    8.8691457    17.699763          120    25259.973    23220.953   -46579.228    342.33619    1118.5334    161.60452    8.8691456    7.6809055    17.699763    633.89931    -2426.894 
     420            0    1205.7622    8.8691456    8.8691457    17.699763          120    24274.044    22253.583   -45917.673    262.90494    922.16889    238.23691    8.8691456    7.6809055    17.699763    203.31807   -2427.0132 
     430            0    1205.7622    8.8691456    8.8691457    17.699763          120    22270.738    20260.357   -44444.947    100.06927    551.38799    395.82194    8.8691456    7.6809055    17.699763   -637.95066   -2427.2573 
     440            0    1205.7622    8.8691456    8.8691457    17.699763          120    21574.548    19560.077   -43868.944    45.372416    433.71655    447.27483    8.8691456    7.6809055    17.699763    -911.4394   -2427.3447 
     450            0    1205.7622    8.8691456    8.8691457    17.699763          120    20853.902    18831.703   -43241.488   -5.9791027    319.52997    501.02667    8.8691456    7.6809055    17.699763   -1185.2945   -2427.4359 
     460            0    1205.7622    8.8691456    8.8691457    17.699763          120    19541.151    17484.745   -42034.104    -100.2034     119.8091    595.77279    8.8691456    7.6809055    17.699763   -1669.4029    -2427.604 
     470            0    1205.0112     8.867304    8.8673041    17.696088          120    21858.974    18773.917   -37296.128     398.1371    1222.4415    156.09743     8.867304    7.6793106    17.696088    1112.2543   -2427.7803 
     480            0    1205.0112     8.867304    8.8673041    17.696088          120    21287.885    18180.362   -36677.669    365.12525    1147.3631     193.4703     8.867304    7.6793106    17.696088    930.19248   -2427.8559 
     490            0    1205.0112     8.867304    8.8673041    17.696088          120    20777.647    17649.268   -36099.117    335.18205    1082.9603    226.26751     8.867304    7.6793106    17.696088    775.93268   -2427.9244 
     500            0    1205.0112     8.867304    8.8673041    17.696088          120    20277.637    17132.487   -35512.508    305.67345    1022.1012    256.55396     8.867304    7.6793106    17.696088    632.53852   -2427.9919 
     510            0    1205.0112     8.867304    8.8673041    17.696088          120    19755.382    16592.608   -34878.251    278.98656    962.54876    286.09667     8.867304    7.6793106    17.696088    489.91308   -2428.0629 
     520            0    1205.0112     8.867304    8.8673041    17.696088          120    19171.758    15982.544   -34128.608    251.45418    898.34308    315.41137     8.867304    7.6793106    17.696088    341.89817   -2428.1439 
     530            0    1205.0112     8.867304    8.8673041    17.696088          120    18386.101    15156.834   -33059.928    216.35464    819.87056    354.67025     8.867304    7.6793106    17.696088     161.0023   -2428.2551 
     540            0    1205.0112     8.867304    8.8673041    17.696088          120    16596.917    13249.446   -30350.518    145.55828    674.91576    430.44563     8.867304    7.6793106    17.696088   -168.05165   -2428.5169 
     550            0    1205.0112     8.867304    8.8673041    17.696088          120    15836.995    12426.778   -29045.501    123.35202    631.18955    454.33749     8.867304    7.6793106    17.696088   -260.57616   -2428.6343 
     560            0    1205.0112     8.867304    8.8673041    17.696088          120    15286.344    11826.776   -28021.115    113.22572    606.97273    468.65172     8.867304    7.6793106    17.696088   -302.66467   -2428.7224 
     570            0    1205.0112     8.867304    8.8673041    17.696088          120    14815.862     11301.23   -27082.792    107.27466    591.64668    477.85683     8.867304    7.6793106    17.696088   -321.90001   -2428.8006 
     580            0    1205.0112     8.867304    8.8673041    17.696088          120    14380.317    10817.621   -26171.545    103.40545    584.08115    483.64259     8.867304    7.6793106    17.696088   -324.53541   -2428.8742 
     590            0    1205.0112     8.867304    8.8673041    17.696088          120    13967.924    10350.364   -25251.864    104.08003    582.85948    486.60822     8.867304    7.6793106    17.696088   -311.19191   -2428.9465 
     600            0    1205.0112     8.867304    8.8673041    17.696088          120    13555.211    9881.2404   -24298.772    111.21108    583.70722    487.47403     8.867304    7.6793106    17.696088   -287.44037   -2429.0198 
     610            0    1205.0112     8.867304    8.8673041    17.696088          120    13138.281    9403.6995   -23246.571    118.84817    595.82468    483.91369     8.867304    7.6793106    17.696088   -234.86357   -2429.0971 
     620            0    1205.0112     8.867304    8.8673041    17.696088          120    12648.993    8833.9821   -21912.165    133.06141    621.73075    473.53324     8.867304    7.6793106    17.696088   -143.06322   -2429.1923 
     628            0    1205.0112     8.867304    8.8673041    17.696088          120    11452.655    7396.0353   -18181.206    189.91056    729.14103    430.29309     8.867304    7.6793106    17.696088    222.49483   -2429.4407 
Loop time of 2.39794 on 1 procs for 628 steps with 128 atoms

100.1% CPU use with 1 MPI tasks x no OpenMP threads

Minimization stats:
  Stopping criterion = energy tolerance
  Energy initial, next-to-last, final = 
        -2412.77276117     -2429.43870739      -2429.4407816
  Force two-norm initial, final = 574.232 7.33674
  Force max component initial, final = 574.021 1.01979
  Final line search alpha, max atom move = 2.32039e-05 2.3663e-05
  Iterations, force evaluations = 628 628

MPI task timing breakdown:
Section |  min time  |  avg time  |  max time  |%varavg| %total
---------------------------------------------------------------
Pair    | 2.0522     | 2.0522     | 2.0522     |   0.0 | 85.58
Bond    | 0.00042677 | 0.00042677 | 0.00042677 |   0.0 |  0.02
Kspace  | 0.092569   | 0.092569   | 0.092569   |   0.0 |  3.86
Neigh   | 0.015624   | 0.015624   | 0.015624   |   0.0 |  0.65
Comm    | 0.015807   | 0.015807   | 0.015807   |   0.0 |  0.66
Output  | 0.075441   | 0.075441   | 0.075441   |   0.0 |  3.15
Modify  | 0          | 0          | 0          |   0.0 |  0.00
Other   |            | 0.1459     |            |       |  6.08

Nlocal:    128 ave 128 max 128 min
Histogram: 1 0 0 0 0 0 0 0 0 0
Nghost:    8422 ave 8422 max 8422 min
Histogram: 1 0 0 0 0 0 0 0 0 0
Neighs:    101626 ave 101626 max 101626 min
Histogram: 1 0 0 0 0 0 0 0 0 0

Total # of neighbors = 101626
Ave neighs/atom = 793.953
Ave special neighs/atom = 0.1875
Neighbor list builds = 6
Dangerous builds = 0
undump MIN

reset_timestep	0
timestep 0.0001

velocity        all create 300.0 87287 loop geom
fix		1 all npt temp 300.0 30.0 .1 iso 1.013 1.013 1.0

dump TRJ all custom 1 dump.lammpstrj id type element x y z ix iy iz
dump_modify TRJ sort 1 element Be Al Si O H O

run 		10000
PPPM initialization ...
  using 12-bit tables for long-range coulomb (../kspace.cpp:321)
  G vector (1/distance) = 0.212303
  grid = 8 10 10
  stencil order = 5
  estimated absolute RMS force accuracy = 0.000398915
  estimated relative force accuracy = 2.77031e-05
  using double precision FFTs
  3d grid and FFT values/proc = 2925 800
Per MPI rank memory allocation (min/avg/max) = 10.57 | 10.57 | 10.57 Mbytes
Step Temp Volume Cella Cellb Cellc CellGamma Pxx Pyy Pzz Pxy Pxz Pyz Lx Ly Lz Press PotEng 
       0          300    1205.0112     8.867304    8.8673041    17.696088          120    15271.146    12234.211   -13682.565   -204.75796     270.0952    231.15649     8.867304    7.6793106    17.696088    4607.5973   -2429.4384 
      10     293.8728    1205.0104    8.8673018    8.8673019    17.696084          120    25047.843    17047.645    7879.4439   -1939.6018    12488.703   -8489.8785    8.8673018    7.6793087    17.696084    16658.311   -2429.3321 
      20    292.41198    1205.0145     8.867312     8.867312    17.696104          120    9280.2209    9313.6247   -19402.372    2023.2448   -6293.7867      1204.79     8.867312    7.6793175    17.696104   -269.50871   -2429.3119 
      30    276.28431    1205.0222    8.8673309    8.8673309    17.696142          120    8367.4881    5173.9756   -26555.423    5319.7381   -9731.9063    6620.8485    8.8673309    7.6793339    17.696142   -4337.9865   -2429.0435 
      40    260.98087    1205.0336    8.8673589    8.8673589    17.696197          120    25083.846    14859.067    8119.5991     2789.864    10066.673   -6379.6927    8.8673589    7.6793581    17.696197    16020.838   -2428.7938 
      50    244.29289    1205.0514    8.8674026    8.8674026    17.696285          120    18332.068    15007.884    7273.4615    777.86703    4577.3197   -9998.1947    8.8674026     7.679396    17.696285    13537.805   -2428.5194 
      60    226.54021     1205.076    8.8674628    8.8674628    17.696405          120      6144.26     2605.851   -19179.741    4873.3275   -11320.202    3006.3358    8.8674628    7.6794481    17.696405   -3476.5432   -2428.2236 
      70     218.2781    1205.1063    8.8675371    8.8675372    17.696553          120    18201.461    7436.7868   -451.22364    8521.0762    297.44147    1494.7482    8.8675371    7.6795125    17.696553    8395.6746   -2428.0896 
      80    208.28195    1205.1444    8.8676305    8.8676306     17.69674          120    24343.752    18223.457    25282.825    3914.1676    9991.1504   -12640.237    8.8676305    7.6795934     17.69674    22616.678   -2427.9194 
      90    213.13293    1205.1922    8.8677478    8.8677479    17.696974          120    10868.411    5364.4598    6503.4704     306.2253   -3260.5052   -8356.8635    8.8677478     7.679695    17.696974    7578.7805        -2428 
     100    213.94759     1205.249     8.867887    8.8678871    17.697252          120    8883.8716   -1822.5771   -2445.8766    7304.4453    -7123.297    3040.8934     8.867887    7.6798155    17.697252    1538.4726   -2428.0065 
     110    227.33837    1205.3148    8.8680486    8.8680486    17.697574          120    20307.151    15196.592    28236.012      10143.6    6158.0323     -5700.74    8.8680486    7.6799554    17.697574    21246.585   -2428.2286 
     120    237.17609    1205.3923    8.8682385    8.8682386    17.697953          120    17321.474    11346.952    35525.478    341.98692    6247.6163   -14942.441    8.8682385    7.6801199    17.697953    21397.968   -2428.3863 
     130    248.19398     1205.482    8.8684585    8.8684586    17.698392          120    6238.9378   -6982.7908    12462.984   -420.41914   -5210.2174   -5776.4739    8.8684585    7.6803104    17.698392     3906.377   -2428.5626 
     140    259.74043     1205.583    8.8687062    8.8687063    17.698886          120    9777.3259    5882.6123    23579.942    10548.286   -1273.6752   -109.08312    8.8687062     7.680525    17.698886     13079.96   -2428.7521 
     150    263.25107    1205.6969    8.8689856    8.8689857    17.699444          120    17149.946     16791.03    54370.679    6862.4193    9295.4398   -10002.522    8.8689856    7.6807669    17.699444    29437.219   -2428.8056 
     160    267.77412    1205.8262    8.8693025    8.8693026    17.700076          120    10594.528   -3254.2715    41829.096   -4290.7527    2967.0038   -14692.812    8.8693025    7.6810414    17.700076    16389.784   -2428.8797 
     170    264.46119    1205.9705    8.8696563    8.8696563    17.700782          120    4226.5318   -5185.2957    25116.559    2705.0006   -3662.5411   -5228.3672    8.8696563    7.6813477    17.700782    8052.5984   -2428.8209 
     180    261.07937    1206.1298    8.8700469     8.870047    17.701562          120    9694.3908    15464.896    58318.918    11068.001    5781.9092   -1588.5707    8.8700469    7.6816861    17.701562    27826.068   -2428.7641 
     190    255.01628    1206.3072    8.8704816    8.8704817    17.702429          120    12664.231    7661.9785    73494.644    1095.5217    9048.2059   -12269.862    8.8704816    7.6820625    17.702429    31273.618   -2428.6629 
     200    248.02324     1206.504    8.8709639     8.870964    17.703392          120    6650.1967   -9582.0018    42633.977   -3748.5882    889.02209   -15520.792    8.8709639    7.6824802    17.703392    13234.057   -2428.5453 
     210    244.47468    1206.7193    8.8714917    8.8714918    17.704445          120    3769.8795    4414.5732    53257.328    7083.5158     2501.291   -2876.7886    8.8714917    7.6829373    17.704445    20480.593   -2428.4903 
     220    238.33283    1206.9548    8.8720688    8.8720689    17.705597          120    7443.3576    15140.816    93252.297    8254.6714    8473.0174    -1984.048    8.8720688     7.683437    17.705597    38612.157   -2428.3872 
     230    239.96645    1207.2133    8.8727021    8.8727022    17.706861          120    8484.0487   -2169.5577    74431.459   -1002.3889     6067.404    -16884.69    8.8727021    7.6839855    17.706861    26915.317   -2428.4166 
     240    235.75385    1207.4944    8.8733908    8.8733909    17.708235          120    3786.6798    -8529.952    53368.771    1332.4979    4479.9885   -14160.361    8.8733908     7.684582    17.708235      16208.5   -2428.3474 
     250    238.12106    1207.7979     8.874134    8.8741341    17.709718          120    1213.3554    9200.5045    94610.101    8959.7808    5350.5304    1354.9672     8.874134    7.6852256    17.709718    35007.987   -2428.3909 
     260     237.4441    1208.1263    8.8749382    8.8749383    17.711323          120     4334.745     10058.16     106324.1    5885.1769    5338.0268   -6722.3551    8.8749382     7.685922    17.711323    40239.002    -2428.382 
     270    232.58711    1208.4808    8.8758064    8.8758064    17.713056          120     4055.839   -10155.982    70615.257    1856.0928    8200.4672   -20973.694    8.8758064    7.6866739    17.713056    21505.038   -2428.3047 
     280    232.11885    1208.8603    8.8767352    8.8767353    17.714909          120   -719.35992   -6621.2041    85559.581    5999.3043    6857.6544   -8629.9584    8.8767352    7.6874783    17.714909    26073.006   -2428.3031 
     290    220.61519    1209.2657    8.8777274    8.8777275     17.71689          120   -792.88664    13413.912    120898.33    8524.6928    1076.9146    1300.3361    8.8777274    7.6883375     17.71689     44506.45    -2428.116 
     300    216.69001    1209.6994    8.8787888    8.8787888    17.719008          120    795.90018    1751.6809    100168.81    6090.9937     6316.159   -14099.307    8.8787888    7.6892567    17.719008    34238.796   -2428.0606 
     310    201.70875    1210.1609    8.8799176    8.8799176     17.72126          120   -2487.6908   -16930.654     82933.65     6326.974    12082.209   -20221.584    8.8799176    7.6902343     17.72126    21171.768   -2427.8172 
     320     196.7502    1210.6491    8.8811116    8.8811117    17.723643          120   -3080.2447     3216.362    113794.23    7624.2577     2413.251   -4356.0297    8.8811116    7.6912684    17.723643    37976.783   -2427.7469 
     330    184.86442    1211.1662    8.8823757    8.8823758    17.726166          120   -1864.0765    14354.058    121414.63    7228.6796   -498.22147   -3146.9053    8.8823757    7.6923631    17.726166     44634.87   -2427.5487 
     340    181.31277    1211.7126    8.8837114    8.8837115    17.728832          120   -6461.0702    -11011.23    94505.751     8652.631    12323.322   -18998.791    8.8837114    7.6935199    17.728832    25677.817   -2427.5006 
     350    179.48186    1212.2868    8.8851143    8.8851144    17.731631          120   -7415.8686    -10863.13     97956.81    9019.5899    11352.428   -17282.532    8.8851143    7.6947348    17.731631     26559.27   -2427.4809 
     360    178.45382    1212.8886    8.8865844    8.8865845    17.734565          120   -2154.3136    15373.133    120285.87    5727.8863   -1698.7727   -3373.9116    8.8865844    7.6960079    17.734565    44501.565   -2427.4695 
     370    189.21109    1213.5196    8.8881251    8.8881252     17.73764          120    -6886.665    4732.1366    109196.89    7138.3339    4545.2649   -8246.8763    8.8881251    7.6973422     17.73764    35680.786   -2427.6561 
     380    191.12868    1214.1785    8.8897336    8.8897337     17.74085          120   -14839.768   -14755.072    89454.028    11611.369    17812.825   -21303.927    8.8897336    7.6987352     17.74085    19953.063    -2427.692 
     390    207.98145    1214.8636    8.8914052    8.8914053    17.744186          120    -6601.456    5550.9668    102764.33    7114.8095    8343.9772   -14877.169    8.8914052    7.7001829    17.744186    33904.614   -2427.9761 
     400    214.78185    1215.5756    8.8931419    8.8931419    17.747651          120   -1625.3383    15949.459    112251.51    2627.7833   -1546.2452   -3902.0025    8.8931419    7.7016868    17.747651    42191.878   -2428.0834 
     410    230.10087    1216.3149    8.8949444    8.8949445    17.751249          120   -15820.627   -4555.3572    90430.047    8654.2248    13406.328   -12573.811    8.8949444    7.7032479    17.751249    23351.354    -2428.351 
     420    238.77386    1217.0792    8.8968071    8.8968072    17.754966          120   -17748.639   -3714.4233    83367.016    10737.852     20830.74    -22435.99    8.8968071    7.7048611    17.754966    20634.651   -2428.4863 
     430    250.07156    1217.8675    8.8987277    8.8987277    17.758799          120   -68.425534    15444.259     101132.6    1765.0237    3645.8127   -12139.361    8.8987277    7.7065243    17.758799    38836.146   -2428.6759 
     440    259.66961    1218.6812     8.900709    8.9007091    17.762753          120   -5437.9741    10101.411    91170.831    599.77402    4025.4418   -4655.4597     8.900709    7.7082402    17.762753    31944.756   -2428.8379 
     450    265.45157    1219.5189     8.902748    8.9027481    17.766822          120   -24867.816   -2245.1122    69380.958    9003.1499    23425.093   -16438.636     8.902748     7.710006    17.766822    14089.343     -2428.93 
     460    276.85063    1220.3781    8.9048381    8.9048382    17.770993          120   -11127.488    7783.1167    81050.506    6255.4275    16491.924   -21351.108    8.9048381    7.7118161    17.770993    25902.045   -2429.1236 
     470    280.35007    1221.2589      8.90698      8.90698    17.775268          120    4532.4074    17538.091    85147.423   -3419.1498    1852.7934   -8688.9921      8.90698     7.713671    17.775268    35739.307   -2429.1805 
     480    292.65305    1222.1615    8.9091738    8.9091739    17.779646          120   -17623.964    8660.4728    58595.932    285.73975    16078.616   -6360.7351    8.9091738    7.7155709    17.779646    16544.147   -2429.3827 
     490    298.63944    1223.0828    8.9114118    8.9114119    17.784112          120   -27305.692    3447.9922    55981.469    8346.0229    25006.483   -18550.377    8.9114118    7.7175091    17.784112    10707.923   -2429.4814 
     500    309.06994    1224.0207    8.9136892    8.9136892    17.788657          120   -1146.3275    14798.632    70669.363    1193.0784    9469.1943   -17980.959    8.9136892    7.7194813    17.788657    28107.223   -2429.6424 
     510    320.43177    1224.9758     8.916007    8.9160071    17.793282          120   -3078.8738    18906.879    50063.114   -6017.0109    9928.7557   -6335.3751     8.916007    7.7214887    17.793282    21963.707   -2429.8006 
     520    328.74154    1225.9458    8.9183598    8.9183599    17.797978          120   -30951.283    8056.1152    29456.299    2521.6575    24127.275   -8307.0983    8.9183598    7.7235263    17.797978    2187.0438   -2429.9296 
     530    340.82567     1226.927    8.9207385    8.9207386    17.802725          120   -20376.962      8961.52    45036.182    7006.1547    18500.068   -18365.373    8.9207385    7.7255863    17.802725    11206.913   -2430.1248 
     540    348.99142    1227.9188    8.9231414    8.9231415     17.80752          120    717.10264    20711.137    42881.125   -2930.3882    11562.888   -14334.519    8.9231414    7.7276672     17.80752    21436.455   -2430.2475 
     550    359.05448    1228.9202    8.9255665    8.9255665     17.81236          120   -18493.308    16235.052    10401.751   -4572.8218    19925.923    -4683.513    8.9255665    7.7297674     17.81236    2714.4983   -2430.4033 
     560    365.14987    1229.9275    8.9280045    8.9280046    17.817225          120   -33686.381    8088.5739    8857.4424    4993.4363    22146.663   -9677.2674    8.9280045    7.7318788    17.817225   -5580.1217   -2430.4851 
     570    371.60208    1230.9382    8.9304495    8.9304496    17.822105          120   -11894.002    16401.248    27617.481    3605.2554    17032.648   -17450.738    8.9304495    7.7339962    17.822105    10708.243   -2430.5916 
     580    377.68308    1231.9522    8.9329009    8.9329009    17.826997          120   -5774.6311    20149.702     6089.383   -4486.8444    18522.103   -9949.4061    8.9329009    7.7361192    17.826997    6821.4846   -2430.6801 
     590    377.66553    1232.9671    8.9353533    8.9353534    17.831891          120   -28853.107    11816.283   -23302.398   -1584.2456    22107.515   -4722.7831    8.9353533    7.7382431    17.831891   -13446.407   -2430.6637 
     600     384.0671    1233.9794    8.9377979     8.937798     17.83677          120   -27258.566    12601.605   -5095.2295    4148.0109    21088.497   -12641.188    8.9377979    7.7403602     17.83677   -6584.0635   -2430.7717 
     610    379.97559    1234.9879    8.9402323    8.9402324    17.841628          120   -6413.3769    18358.533    4821.9885    280.00988    19450.946   -13768.357    8.9402323    7.7424684    17.841628    5589.0482   -2430.6827 
     620    383.66623    1235.9924    8.9426554    8.9426555    17.846463          120   -14904.318    14400.406   -32622.935   -3922.8207    21183.654   -7751.8756    8.9426554    7.7445668    17.846463   -11042.282   -2430.7275 
     630    379.12672    1236.9896    8.9450597    8.9450597    17.851262          120   -31072.623    11006.895   -44129.141   -117.82094    23948.063   -9472.5028    8.9450597     7.746649    17.851262    -21398.29   -2430.6444 
     640    377.04772    1237.9769    8.9474389    8.9474389     17.85601          120    -16209.26    14961.464   -13337.425    2226.0671    21214.906   -12017.415    8.9474389    7.7487094     17.85601   -4861.7402   -2430.5901 
     650    375.29594    1238.9546    8.9497937    8.9497937    17.860709          120   -6706.8255    14408.069   -24255.756   -1513.1353    19349.257   -10267.618    8.9497937    7.7507488    17.860709    -5518.171   -2430.5376 
     660     367.8267    1239.9214     8.952121    8.9521211    17.865354          120   -24351.954    9745.8439   -62860.748   -2035.4945    25491.419    -11398.48     8.952121    7.7527643    17.865354   -25822.286   -2430.3903 
     670    367.56068     1240.874    8.9544131    8.9544131    17.869928          120   -24500.792    11371.035   -47768.742    973.00966    25233.592   -11085.126    8.9544131    7.7547493    17.869928     -20299.5   -2430.3721 
     680    357.59274    1241.8118    8.9566683    8.9566683    17.874428          120   -6594.7539    13693.118   -23926.257    78.339743    17968.448   -8638.4115    8.9566683    7.7567023    17.874428   -5609.2974   -2430.1887 
     690    358.45631    1242.7354    8.9588884    8.9588884    17.878859          120   -15246.801    9623.9628    -53764.64   -845.70402    23352.369   -11542.253    8.9588884     7.758625    17.878859   -19795.826   -2430.1808 
     700    346.54304    1243.6427    8.9610679     8.961068    17.883208          120   -28191.198    7704.4472    -73521.39    846.90125    30343.422   -13640.246    8.9610679    7.7605125    17.883208   -31336.047   -2429.9591 
     710    346.21664    1244.5315    8.9632022    8.9632023    17.887468          120   -9694.6984     11697.34   -43608.739   -474.05803    21583.953   -8334.2536    8.9632022    7.7623609    17.887468   -13868.699   -2429.9384 
     720    337.55825    1245.4034    8.9652949    8.9652949    17.891644          120   -6304.9665    11808.767   -38771.091   -330.10875    19984.922   -7448.3735    8.9652949    7.7641732    17.891644   -11089.097   -2429.7666 
     730    332.96289    1246.2583    8.9673459     8.967346    17.895737          120   -27052.536    7563.1202   -72241.053    1928.9034    31462.402   -13578.599    8.9673459    7.7659494    17.895737   -30576.823   -2429.6768 
     740    331.83758    1247.0939    8.9693497    8.9693497    17.899736          120   -16262.612    8817.8724    -69724.19   -532.03357    30082.147   -12076.326    8.9693497    7.7676847    17.899736   -25722.977   -2429.6361 
     750    326.48461    1247.9107    8.9713073    8.9713074    17.903643          120     2286.867    13110.342    -41037.42   -1311.1059    21381.992   -5404.7225    8.9713073    7.7693801    17.903643   -8546.7371    -2429.532 
     760    333.27577    1248.7105    8.9732234    8.9732235    17.907467          120   -17390.327    10745.302   -54368.826    2345.2033     27105.06    -8944.494    8.9732234    7.7710395    17.907467    -20337.95   -2429.6142 
     770    332.46327    1249.4919    8.9750948    8.9750949    17.911201          120   -24762.021    7469.2579   -80587.406    580.02924     34965.71   -14694.512    8.9750948    7.7726602    17.911201   -32626.723   -2429.5905 
     780    343.64322    1250.2538    8.9769186    8.9769187    17.914841          120    2969.0027    11963.084   -60565.447   -2085.0831    28933.049   -8944.5491    8.9769186    7.7742396    17.914841    -15211.12   -2429.7669 
     790    347.62999    1250.9981    8.9786998    8.9786998    17.918396          120   -250.09655    13696.014   -43244.596    2114.1254    23771.334   -5385.0576    8.9786998    7.7757822    17.918396   -9932.8928   -2429.8146 
     800    358.11722    1251.7256    8.9804399      8.98044    17.921868          120   -24495.936    9186.4179   -69914.946    2502.3815     30711.63   -12170.301    8.9804399    7.7772892    17.921868   -28408.155   -2429.9783 
     810     362.3593    1252.4347    8.9821353    8.9821354    17.925252          120   -8671.1313    11729.524   -77733.969   -1467.6863    35602.115    -13091.92    8.9821353    7.7787574    17.925252   -24891.859   -2430.0297 
     820    365.89539    1253.1264    8.9837886    8.9837886    17.928551          120    12013.034     17503.24    -47516.39    1338.3634    28232.157   -6528.4299    8.9837886    7.7801892    17.928551   -6000.0387   -2430.0639 
     830    369.42722    1253.8035    8.9854063    8.9854064     17.93178          120     -8365.49    14361.972   -49496.119    5305.2465    24492.357   -7323.3613    8.9854063    7.7815902     17.93178   -14499.879   -2430.1205 
     840    365.91329    1254.4661    8.9869889     8.986989    17.934938          120   -19981.447    14379.575   -74113.938    1821.4859    33680.574   -11602.656    8.9869889    7.7829608    17.934938   -26571.937   -2430.0389 
     850    370.20015    1255.1143    8.9885367    8.9885367    17.938027          120    7083.4573    22634.358   -57347.244    933.93433    36170.548   -9146.8721    8.9885367    7.7843012    17.938027   -9209.8098   -2430.1022 
     860    369.98823    1255.7514    8.9900573    8.9900573    17.941061          120    14211.446    22253.598   -35785.154    6635.7126     25109.51   -5830.5691    8.9900573    7.7856181    17.941061     226.6299   -2430.0767 
     870     375.9608    1256.3799    8.9915569    8.9915569    17.944054          120   -12161.215    17098.279   -53421.577    7244.8577    24662.977   -8017.6971    8.9915569    7.7869167    17.944054   -16161.504    -2430.164 
     880    383.84633    1256.9998    8.9930353    8.9930354    17.947004          120   -6813.6561    23821.224    -59563.23    3816.1672    35984.329   -11345.018    8.9930353    7.7881971    17.947004    -14185.22   -2430.2981 
     890    391.10727    1257.6127    8.9944966    8.9944967    17.949921          120    25382.502    28772.033   -34942.532    6870.9808    31491.183   -10328.881    8.9944966    7.7894627    17.949921     6404.001   -2430.4228 
     900    401.85184    1258.2224    8.9959499      8.99595    17.952821          120    14314.884    20510.366    -31911.14    10943.831    19762.406   -8508.0075    8.9959499    7.7907213    17.952821    971.37027    -2430.593 
     910    406.83498      1258.83    8.9973979     8.997398    17.955711          120   -10230.872    19993.009   -47447.968     9493.932    26842.706   -11964.161    8.9973979    7.7919753    17.955711   -12561.944   -2430.6679 
     920    415.12721    1259.4358     8.998841    8.9988411    17.958591          120    17581.988    30042.364    -36471.24    9348.8064     35174.68   -15305.957     8.998841     7.793225    17.958591     3717.704   -2430.8075 
     930    417.65041    1260.0431    9.0002871    9.0002872    17.961477          120    37284.683    27879.509   -18877.944     11925.02    25172.472   -12256.838    9.0002871    7.7944773    17.961477    15428.749   -2430.8499 
     940    423.40673    1260.6548    9.0017433    9.0017433    17.964382          120    4575.5787    19162.471   -26594.516    13342.367    21222.177   -10990.877    9.0017433    7.7957384    17.964382   -952.15567   -2430.9562 
     950    427.71561    1261.2705    9.0032085    9.0032086    17.967307          120    2441.4708    24775.589   -31598.684    13258.146    32004.438   -16046.982    9.0032085    7.7970074    17.967307   -1460.5415   -2431.0304 
     960    429.42478    1261.8914    9.0046857    9.0046858    17.970255          120    39793.112    32586.439   -15139.527    13113.653    31998.955   -16964.166    9.0046857    7.7982867    17.970255    19080.008    -2431.047 
     970     437.3979     1262.521    9.0061831    9.0061832    17.973243          120    27727.438    25472.746   -9521.3363    14036.868    24816.296   -12262.298    9.0061831    7.7995834    17.973243    14559.616   -2431.1664 
     980    433.69996    1263.1598    9.0077018    9.0077018    17.976274          120   -1947.8763    18506.844   -20418.507      14533.1    28247.874   -13461.173    9.0077018    7.8008986    17.976274   -1286.5128   -2431.1061 
     990    440.79648    1263.8067    9.0092392    9.0092393    17.979342          120    24256.106    27319.649       -14036    13710.374    32382.648   -18202.987    9.0092392    7.8022301    17.979342    12513.252   -2431.2391 
    1000    436.70417     1264.464    9.0108007    9.0108007    17.982458          120     40938.45     32708.14   -1315.1845     14256.54    30652.097   -16156.547    9.0108007    7.8035824    17.982458    24110.469   -2431.1843 
    1010    439.56003    1265.1332    9.0123902    9.0123903     17.98563          120     9093.126    20899.541   -8681.1695    13392.083    30217.807   -12031.965    9.0123902     7.804959     17.98563    7103.8323    -2431.241 
    1020    438.20378    1265.8129    9.0140038    9.0140039     17.98885          120    5175.6091    17649.002   -12521.512    11270.379    31402.122   -14156.247    9.0140038    7.8063564     17.98885    3434.3664   -2431.2354 
    1030     437.8874    1266.5029    9.0156412    9.0156413    17.992118          120    35053.551    31482.401    823.69558    13545.154    33040.402   -17530.064    9.0156412    7.8077744    17.992118    22453.216   -2431.2305 
    1040    440.33749    1267.2052    9.0173075    9.0173075    17.995443          120    24706.744    29476.323    740.35722     12692.95    34338.183   -15307.602    9.0173075    7.8092174    17.995443    18307.808   -2431.2838 
    1050    436.25926    1267.9193    9.0190009     9.019001    17.998823          120   -2395.0762    14933.429   -10219.921    6675.6185    33370.974   -11089.317    9.0190009     7.810684    17.998823     772.8105   -2431.2244 
    1060    441.87334     1268.643    9.0207166    9.0207167    18.002247          120    14789.991    22058.889   -1801.4347    8453.6023    33673.285   -12703.343    9.0207166    7.8121699    18.002247    11682.482   -2431.3502 
    1070    434.49658    1269.3774    9.0224568    9.0224569     18.00572          120    30782.561    32270.983    7306.0869    12214.399    35919.056   -17433.549    9.0224568    7.8136769     18.00572     23453.21   -2431.2429 
    1080    439.57528    1270.1231    9.0242234    9.0242234    18.009245          120     5750.931    19423.486    -4699.772    5065.0179    36042.993    -14701.72    9.0242234    7.8152068    18.009245    6824.8818   -2431.3647 
    1090    432.69325     1270.878    9.0260109     9.026011    18.012812          120   -4368.0583    12384.603   -6898.0575    363.22921    34722.452   -9194.3028    9.0260109    7.8167548    18.012812    372.82903   -2431.2716 
    1100     432.8149    1271.6409    9.0278166    9.0278167    18.016416          120    20692.534    25452.133    8448.8918    8021.1701    35318.814   -13012.932    9.0278166    7.8183186    18.016416    18197.853   -2431.2933 
    1110    430.38643    1272.4131    9.0296437    9.0296437    18.020062          120    18775.392    24484.553     3617.686    8798.9843    37245.286   -19091.954    9.0296437    7.8199009    18.020062    15625.877   -2431.2688 
    1120    425.05553    1273.1939    9.0314901    9.0314902    18.023747          120   -9190.8913    10012.355   -8956.0873   -2183.8225    36660.845   -14393.296    9.0314901    7.8214999    18.023747   -2711.5411   -2431.1966 
    1130    424.35976    1273.9805    9.0333498    9.0333499    18.027458          120     595.5294    13432.091    2744.3854   -833.84738    33644.941   -9236.5983    9.0333498    7.8231105    18.027458    5590.6686   -2431.2144 
    1140    416.69969    1274.7734    9.0352233    9.0352234    18.031197          120     22877.41     23331.23    9516.9517    10337.559    34759.653   -16124.567    9.0352233     7.824733    18.031197    18575.197   -2431.0988 
    1150    415.58487    1275.5732    9.0371125    9.0371126    18.034967          120    58.632513    14825.193   -5131.7105    5015.1899    37597.873   -20538.372    9.0371125    7.8263691    18.034967    3250.7049   -2431.1024 
    1160    406.53259    1276.3777    9.0390121    9.0390122    18.038758          120     -16480.1    5435.8598   -5464.5166   -5422.0498    33087.898   -13232.152    9.0390121    7.8280142    18.038758   -5502.9189   -2430.9631 
    1170    404.73886    1277.1852    9.0409179     9.040918    18.042562          120    12788.902    13264.248    8837.0672      3570.96    28780.999    -10694.48    9.0409179    7.8296646    18.042562    11630.072   -2430.9465 
    1180    398.27075    1277.9969    9.0428328    9.0428329    18.046383          120     13064.94    18253.764    1857.9715    11363.164    33936.585   -17946.911    9.0428328     7.831323    18.046383    11058.892   -2430.8604 
    1190     394.5909    1278.8121     9.044755    9.0447551    18.050219          120   -19789.519    7335.2441   -11682.231    928.44602    35716.206   -18674.717     9.044755    7.8329877    18.050219   -8045.5019   -2430.8232 
    1200    393.66545    1279.6276    9.0466772    9.0466772    18.054055          120   -7482.7804    1628.6436   -238.92419   -2875.3082    26825.658   -11387.037    9.0466772    7.8346523    18.054055   -2031.0204   -2430.8411 
    1210    389.04654    1280.4431    9.0485987    9.0485987     18.05789          120    16380.463    12035.205     6630.957    8434.1102    26142.488   -10955.898    9.0485987    7.8363164     18.05789    11682.208   -2430.7685 
    1220    390.98571    1281.2594    9.0505211    9.0505212    18.061726          120   -8593.6238    13221.631   -13382.477    9656.4685    36521.989   -17187.681    9.0505211    7.8379813    18.061726   -2918.1564   -2430.8139 
    1230    388.33175    1282.0736    9.0524378    9.0524378    18.065551          120   -23764.888   -118.19988   -16702.987   -277.48449    33356.112   -15777.476    9.0524378    7.8396411    18.065551   -13528.692   -2430.7908 
    1240    388.66248    1282.8833    9.0543432    9.0543433    18.069354          120    3201.9243    705.60649    2629.7175    2525.3614    22336.829    -8598.634    9.0543432    7.8412913    18.069354    2179.0828   -2430.8104 
    1250    390.22725    1283.6894    9.0562392    9.0562393    18.073138          120    3402.8607    12305.304   -8119.2094    11403.823     30094.69   -10692.865    9.0562392    7.8429333    18.073138    2529.6516   -2430.8589 
    1260    389.95095    1284.4905    9.0581225    9.0581226    18.076896          120   -24129.648    5660.3024   -31650.371    6774.7487    39325.908   -16399.441    9.0581225    7.8445643    18.076896   -16706.572   -2430.8854 
    1270    395.20484     1285.283     9.059985    9.0599851    18.080613          120   -16838.699   -4240.0646   -16808.315    1171.0733     28185.94    -11484.86     9.059985    7.8461773    18.080613   -12629.026   -2430.9699 
    1280    396.23819    1286.0662     9.061825    9.0618251    18.084285          120    2056.5286    4020.7989   -4084.1684     7765.011    23878.435   -6503.5247     9.061825    7.8477708    18.084285    664.38635    -2430.983 
    1290    404.39955    1286.8403    9.0636428    9.0636429    18.087913          120   -13933.258    7616.6934   -31244.938    10854.274    36675.198   -12543.109    9.0636428     7.849345    18.087913   -12520.501   -2431.1428 
    1300    405.69474    1287.6024    9.0654316    9.0654317    18.091483          120   -28552.286    -2015.308   -41907.698    4529.2474     37649.08   -14556.637    9.0654316    7.8508941    18.091483   -24158.431   -2431.1724 
    1310     412.4949    1288.3498    9.0671855    9.0671855    18.094983          120   -11478.365   -1785.0479   -16848.761    3745.8983    25747.657   -7344.2572    9.0671855     7.852413    18.094983   -10037.391   -2431.3013 
    1320    415.97864     1289.083    9.0689051    9.0689052    18.098414          120   -6689.8231    4218.9691   -21510.309    9241.1734     28068.22   -8127.9821    9.0689051    7.8539023    18.098414   -7993.7209   -2431.3845 
    1330    416.68638    1289.8008    9.0705881    9.0705882    18.101773          120   -27857.367   -161.43617   -50814.209     8136.403    39724.618   -14629.678    9.0705881    7.8553598    18.101773   -26277.671   -2431.4117 
    1340    423.31471    1290.5003    9.0722275    9.0722276    18.105045          120   -27598.564   -2276.5919   -41427.924    2681.3484     33671.03   -10888.313    9.0722275    7.8567796    18.105045   -23767.693   -2431.5408 
    1350    419.91581    1291.1806    9.0738215    9.0738216    18.108226          120   -8465.6265    2583.6915   -22328.121    4011.8235    21551.556   -5670.3032    9.0738215      7.85816    18.108226   -9403.3522    -2431.496 
    1360    427.56376    1291.8427    9.0753721    9.0753722     18.11132          120   -19157.391     1075.274   -42172.111    7353.8201    30416.635   -10973.351    9.0753721    7.8595029     18.11132   -20084.743   -2431.6435 
    1370     424.2859    1292.4846    9.0768749     9.076875    18.114319          120   -37833.604    -1990.866   -56811.461    3971.0049    38604.527   -13961.355    9.0768749    7.8608044    18.114319   -32211.977   -2431.5919 
    1380      430.733    1293.1043    9.0783255    9.0783256    18.117214          120   -19120.492    2992.1897   -37114.268    1485.7178    23826.733     -7178.64    9.0783255    7.8620606    18.117214   -17747.523   -2431.6961 
    1390    430.49013    1293.7031    9.0797266    9.0797266     18.12001          120   -9020.3481      3701.57   -33894.831     3431.473    18690.113   -6142.1982    9.0797266    7.8632739     18.12001   -13071.203   -2431.6835 
    1400    434.68367    1294.2813     9.081079    9.0810791    18.122709          120    -35324.21   -687.30995   -54777.475    3522.5746    32671.147   -13040.211     9.081079    7.8644452    18.122709   -30262.999   -2431.7576 
    1410    438.85214    1294.8367    9.0823777    9.0823778    18.125301          120   -33764.049     2170.802   -53241.293    2888.9944    30589.592   -11549.436    9.0823777    7.8655699    18.125301    -28278.18   -2431.8261 
    1420    440.42962    1295.3693    9.0836228    9.0836229    18.127786          120    -5841.348    5124.2534   -36547.224    2458.3879    16449.642   -4603.0326    9.0836228    7.8666482    18.127786    -12421.44   -2431.8668 
    1430    450.15808    1295.8809    9.0848185    9.0848186    18.130172          120   -20546.177     1558.703   -45075.606    807.20096    20683.611   -7713.3846    9.0848185    7.8676837    18.130172    -21354.36   -2432.0578 
    1440    448.65388    1296.3703    9.0859622    9.0859623    18.132455          120   -41621.907    1207.4726   -61412.933    3335.7062    31541.329   -13625.231    9.0859622    7.8686742    18.132455   -33942.456   -2432.0614 
    1450    458.77275     1296.836      9.08705    9.0870501    18.134625          120   -14020.899    4339.2242   -49673.646    5819.5409    24200.443   -8107.3156      9.08705    7.8696162    18.134625   -19785.107   -2432.2533 
    1460     457.1123    1297.2795    9.0880858    9.0880859    18.136693          120    -5086.078     3033.078   -39047.396    773.72971    15326.678   -3363.8031    9.0880858    7.8705133    18.136693   -13700.132   -2432.2244 
    1470    460.78041    1297.7016    9.0890713    9.0890713    18.138659          120   -34617.515    1134.9207    -57736.18    1051.2455    24578.957   -10026.402    9.0890713    7.8713667    18.138659   -30406.258   -2432.2949 
    1480    459.03045       1298.1    9.0900014    9.0900015    18.140515          120   -27356.278    3266.1041   -65243.959    8076.1769    31159.235   -11547.549    9.0900014    7.8721722    18.140515   -29778.044   -2432.2825 
    1490     456.5387     1298.475    9.0908765    9.0908766    18.142262          120   -852.18989    4723.3421    -44990.45    6078.7694    20737.453   -3573.1003    9.0908765    7.8729301    18.142262   -13706.433   -2432.2691 
    1500     454.8913    1298.8281    9.0917005    9.0917005    18.143906          120   -18617.853    1536.3232   -47476.256    673.57429      18045.8   -5104.3344    9.0917005    7.8736437    18.143906   -21519.262   -2432.2513 
    1510    449.10896    1299.1582    9.0924707    9.0924708    18.145443          120   -35504.566    1207.8705   -70370.922    5434.0504    29435.456   -11087.265    9.0924707    7.8743107    18.145443   -34889.206   -2432.1749 
    1520    449.20167    1299.4637    9.0931833    9.0931833    18.146865          120    -10601.72    6377.6855   -61983.098    10871.591    29364.766   -6136.4914    9.0931833    7.8749278    18.146865   -22069.044   -2432.1953 
    1530    443.92802    1299.7457    9.0938411    9.0938411    18.148178          120   -4629.0282    4706.1307   -45257.829    6013.5505    19574.466   -3564.6998    9.0938411    7.8754975    18.148178   -15060.242    -2432.129 
    1540    445.52346    1300.0047    9.0944452    9.0944453    18.149384          120   -30848.821   -1665.8463   -61849.688    2168.8388    22844.319    -9551.354    9.0944452    7.8760206    18.149384   -31454.785   -2432.1919 
    1550    443.80842    1300.2387    9.0949906    9.0949907    18.150472          120   -26803.068    3601.9517   -74298.955    8935.7511    31696.859   -8386.2734    9.0949906     7.876493    18.150472   -32500.024    -2432.183 
    1560    443.77639    1300.4472    9.0954767    9.0954768    18.151442          120   -2431.9508    9766.5147   -56395.643    12586.289    26631.613   -3741.7161    9.0954767     7.876914    18.151442   -16353.693   -2432.1951 
    1570    446.45869     1300.632    9.0959076    9.0959077    18.152302          120   -14670.719   -154.90405   -51915.072    4843.7095    20259.098   -8405.4887    9.0959076    7.8772871    18.152302   -22246.899   -2432.2624 
    1580    443.87117    1300.7925    9.0962818    9.0962819    18.153049          120   -34726.038    -3479.789    -69498.93    2761.6063    27627.511    -10793.19    9.0962818    7.8776112    18.153049   -35901.585   -2432.2481 
    1590    446.28441    1300.9274    9.0965962    9.0965963    18.153676          120    -14243.11    10283.436   -67594.517    12254.426    31284.364     -4069.13    9.0965962    7.8778835    18.153676   -23851.397   -2432.3135 
    1600    444.03902    1301.0384    9.0968548    9.0968549    18.154192          120    886.15525    8563.0914   -52003.311    12107.595    23233.453   -4715.1089    9.0968548    7.8781075    18.154192   -14184.688   -2432.2928 
    1610    443.26736    1301.1271    9.0970617    9.0970618    18.154605          120   -24301.655   -5936.5444   -55531.689    1301.4896    24021.288   -11738.573    9.0970617    7.8782866    18.154605   -28589.963     -2432.31 
    1620    442.54828    1301.1928    9.0972148    9.0972149    18.154911          120   -29023.029    2892.9642   -64880.107    4275.5906    31043.029   -7182.4171    9.0972148    7.8784192    18.154911   -30336.724   -2432.3182 
    1630    440.26721    1301.2361    9.0973157    9.0973158    18.155112          120    2811.1667    16163.916    -56898.17    15085.286    26617.324    249.05314    9.0973157    7.8785066    18.155112   -12641.029   -2432.2878 
    1640    442.80977    1301.2601    9.0973717    9.0973718    18.155224          120   -1889.6229    3838.3484   -47754.962    7817.9032    23665.026   -6175.1812    9.0973717    7.8785551    18.155224   -15268.746   -2432.3415 
    1650    440.37101    1301.2657    9.0973848    9.0973848     18.15525          120   -29893.621   -3709.1576   -53309.168   -2218.6143    29413.609   -11568.386    9.0973848    7.8785664     18.15525   -28970.649   -2432.3172 
    1660    447.47001    1301.2525    9.0973538    9.0973539    18.155188          120   -8762.8234     12303.95   -55302.222    8912.8981    28202.936   -861.76907    9.0973538    7.8785396    18.155188   -17253.698    -2432.464 
    1670    446.48726    1301.2227    9.0972846    9.0972846     18.15505          120    14120.127    16344.726   -46845.606     14860.67    23625.718    3778.6579    9.0972846    7.8784796     18.15505   -5460.2508   -2432.4652 
    1680    454.96281    1301.1792     9.097183    9.0971831    18.154847          120   -12710.326    1561.9662   -45749.973     255.8753    27632.455    -8767.594     9.097183    7.8783917    18.154847   -18966.111   -2432.6369 
    1690    458.20273    1301.1211    9.0970477    9.0970477    18.154577          120   -19171.073    2111.6356   -49649.756   -844.54913    29741.677   -9238.7392    9.0970477    7.8782745    18.154577   -22236.398   -2432.6888 
    1700    461.83765    1301.0492      9.09688    9.0968801    18.154243          120    12772.557    16835.007   -43685.833    14077.708    24717.374    5701.8235      9.09688    7.8781293    18.154243   -4692.7565   -2432.7791 
    1710     468.5649    1300.9663    9.0966869     9.096687    18.153857          120    7639.6089    14177.194   -40819.581    8956.8167     25122.47    1395.6349    9.0966869    7.8779621    18.153857   -6334.2593   -2432.9241 
    1720    466.81691    1300.8731    9.0964696    9.0964697    18.153424          120   -15361.993    105.72643   -47977.497   -4110.6163    30106.851   -13808.578    9.0964696    7.8777738    18.153424   -21077.921   -2432.9266 
    1730    472.11572    1300.7684    9.0962255    9.0962256    18.152937          120    2769.6274    6703.6506   -43191.874    4842.3665    29221.261   -5539.6055    9.0962255    7.8775625    18.152937   -11239.532   -2433.0337 
    1740     465.2671    1300.6541    9.0959591    9.0959591    18.152405          120    15672.645    20131.113   -33445.069     12797.25    26598.543    5219.8645    9.0959591    7.8773317    18.152405    786.22977   -2432.9469 
    1750     466.6047     1300.532    9.0956746    9.0956747    18.151837          120   -2837.2606    9607.1116   -42905.337    2117.0458    29690.192   -8513.5554    9.0956746    7.8770854    18.151837   -12045.162   -2432.9948 
    1760    456.29459    1300.4013    9.0953699      9.09537    18.151229          120   -2664.0243   -220.70445   -49388.033   -2436.8388    32374.857   -16894.697    9.0953699    7.8768215    18.151229   -17424.254    -2432.864 
    1770    451.97443     1300.262     9.095045    9.0950451    18.150581          120    15030.717    15493.649   -32637.931    6001.5713     32359.64   -3706.9943     9.095045    7.8765401    18.150581   -704.52146   -2432.8233 
    1780    441.63884    1300.1165    9.0947057    9.0947058    18.149904          120    8638.5205    20159.733   -30489.401    6573.1529    33499.969   -2853.7109    9.0947057    7.8762463    18.149904   -563.71568   -2432.6701 
    1790    431.69334    1299.9655    9.0943536    9.0943537    18.149201          120   -2542.5561    4829.1693   -48187.329    -513.3527    34341.045   -17070.806    9.0943536    7.8759413    18.149201   -15300.239   -2432.5214 
    1800    425.89588    1299.8081    9.0939867    9.0939867    18.148469          120    10200.828     8441.056   -40561.327    -840.3808    34855.682   -15175.045    9.0939867    7.8756236    18.148469   -7306.4809   -2432.4561 
    1810    413.77041    1299.6461    9.0936089     9.093609    18.147715          120    18626.948    22819.846   -22344.118    2644.6185    38231.223   -4929.4906    9.0936089    7.8752964    18.147715    6367.5587   -2432.2795 
    1820    412.04828    1299.4819    9.0932258    9.0932259     18.14695          120    3403.1595    16771.559   -33992.603    1892.6601    39331.018   -9945.0312    9.0932258    7.8749646     18.14695   -4605.9614   -2432.2771 
    1830    403.79615    1299.3151    9.0928368    9.0928368    18.146174          120    70.114514    9905.6037   -44270.297    295.95762    36297.074   -17811.899    9.0928368    7.8746277    18.146174   -11431.526    -2432.173 
    1840     404.2392    1299.1459    9.0924421    9.0924422    18.145386          120     20629.39    20358.407    -25331.33    -411.9226    38005.033   -11713.783    9.0924421    7.8742859    18.145386    5218.8226   -2432.2038 
    1850    401.29065    1298.9772    9.0920484    9.0920484      18.1446          120    17140.341    26001.975   -19520.815   -1198.1229     42246.28   -5209.4061    9.0920484    7.8739449      18.1446    7873.8337   -2432.1738 
    1860    401.64301    1298.8102    9.0916589     9.091659    18.143823          120   -5481.7351    20389.965   -35396.189     2087.239    40983.265   -10141.709    9.0916589    7.8736076    18.143823   -6829.3197   -2432.1825 
    1870    401.62081    1298.6445    9.0912722    9.0912723    18.143051          120    8150.8962    21693.427   -31305.426     3533.693    37807.923   -13594.035    9.0912722    7.8732727    18.143051   -487.03447   -2432.2178 
    1880     400.0065    1298.4817    9.0908922    9.0908923    18.142293          120    28694.508    30284.882   -14946.254   -2595.3906    39158.767   -5789.4329    9.0908922    7.8729437    18.142293    14677.712   -2432.2357 
    1890    400.40569    1298.3246    9.0905256    9.0905257    18.141562          120    4005.9879    31503.268   -20004.711   -1734.6674    42882.224   -989.21323    9.0905256    7.8726262    18.141562    5168.1816   -2432.2756 
    1900    395.26146    1298.1733    9.0901725    9.0901726    18.140857          120   -7482.9513    28053.812   -29592.859     7109.201    42080.307   -6463.0279    9.0901725    7.8723204    18.140857   -3007.3329   -2432.2092 
    1910    394.58206    1298.0279     9.089833     9.089833    18.140179          120    24693.981    32330.964   -17544.669    2522.7881     36928.34   -6083.0863     9.089833    7.8720263    18.140179    13160.092   -2432.2314 
    1920    390.25105    1297.8912    9.0895139     9.089514    18.139543          120    21791.798    38463.993    -7628.477   -5315.0232    38261.772    2269.4683    9.0895139    7.8717501    18.139543    17542.438   -2432.1729 
    1930     386.4039    1297.7648    9.0892189     9.089219    18.138954          120    -9050.262    34934.513   -19132.694    3020.6273    43638.785    2599.6271    9.0892189    7.8714946    18.138954     2250.519   -2432.1432 
    1940    386.36605    1297.6477    9.0889454    9.0889455    18.138408          120    7952.0986    32765.072   -20570.162    7619.1934    39518.769   -1421.7419    9.0889454    7.8712577    18.138408    6715.6697   -2432.1566 
    1950     382.2831    1297.5409    9.0886962    9.0886963    18.137911          120    30632.071    39234.919   -4700.2195    -2327.857    34497.201    1275.1371    9.0886962    7.8710419    18.137911    21722.257   -2432.1185 
    1960    384.94874    1297.4468    9.0884763    9.0884764    18.137472          120    5356.6982    39324.635    -8093.904    -2945.123    38693.931    5352.0775    9.0884763    7.8708514    18.137472     12195.81   -2432.1918 
    1970    383.12668     1297.364    9.0882832    9.0882832    18.137086          120   -5783.3916    32294.765   -21542.274     6137.176    40749.798    4858.4863    9.0882832    7.8706842    18.137086    1656.3663   -2432.1798 
    1980    385.93564    1297.2916    9.0881139     9.088114    18.136749          120    22844.186    34398.273   -10779.458    3257.9968    36215.655    1693.8044    9.0881139    7.8705376    18.136749    15487.667   -2432.2543 
    1990     386.4005    1297.2307    9.0879718    9.0879719    18.136465          120     22767.06    39199.277   -3762.3066   -2758.8989     34820.64    1821.8581    9.0879718    7.8704146    18.136465    19401.343   -2432.2779 
    2000    386.83162    1297.1814    9.0878567    9.0878568    18.136235          120   -3846.0365     33061.16     -20276.5    2470.6199    37191.855    6666.8184    9.0878567    7.8703149    18.136235     2979.541   -2432.3023 
    2010    389.16669    1297.1413    9.0877629     9.087763    18.136048          120    5661.0118    28811.075    -21084.35     5885.322    37918.825    5357.8427    9.0877629    7.8702337    18.136048    4462.5789   -2432.3768 
    2020    385.77252    1297.1099    9.0876896    9.0876897    18.135902          120    27614.943    34423.571   -7040.2328    1098.9846    35952.649   -1661.5634    9.0876896    7.8701702    18.135902     18332.76   -2432.3439 
    2030    389.41914    1297.0881    9.0876388    9.0876388      18.1358          120    11997.462    33282.383   -16833.008    1821.2562    34408.041    3047.7349    9.0876388    7.8701261      18.1358     9482.279   -2432.4339 
    2040    381.96617    1297.0742    9.0876063    9.0876064    18.135736          120   -4444.3606    25771.838    -29534.63    7279.8005    36477.706    9503.5323    9.0876063     7.870098    18.135736   -2735.7175   -2432.3329 
    2050    384.69057    1297.0663    9.0875878    9.0875879    18.135699          120     15784.85    28769.997    -16337.36    4760.9764    37113.715    764.81953    9.0875878     7.870082    18.135699    9405.8289   -2432.4096 
    2060    378.16429     1297.065    9.0875848    9.0875848    18.135693          120    25331.074    32169.792   -13430.361    1328.2262    35109.828   -2492.9646    9.0875848    7.8700793    18.135693    14690.168    -2432.327 
    2070    375.79873    1297.0703    9.0875971    9.0875972    18.135717          120    1406.4312    25044.432   -30006.069    7322.6644    35733.385    8788.5242    9.0875971      7.87009    18.135717   -1185.0686   -2432.3049 
    2080    372.14906    1297.0799    9.0876195    9.0876196    18.135762          120   -1212.6342    24149.367    -28010.55    9107.1271    36346.553    8448.0896    9.0876195    7.8701094    18.135762   -1691.2724   -2432.2742 
    2090    365.78953    1297.0931    9.0876505    9.0876505    18.135824          120    22991.316    31617.049   -15518.673    560.11421    35184.584   -1865.4627    9.0876505    7.8701362    18.135824    13029.897   -2432.1763 
    2100    363.42972    1297.1112    9.0876927    9.0876927    18.135908          120    15049.496    27529.067   -24486.939    2880.9916    36261.477    2534.6302    9.0876927    7.8701728    18.135908     6030.541   -2432.1812 
    2110    353.19577    1297.1329    9.0877433    9.0877434    18.136009          120   -7556.8897    20644.845   -34990.104     12207.28    36441.301    12413.881    9.0877433    7.8702167    18.136009   -7300.7162   -2432.0376 
    2120    351.21881    1297.1561    9.0877977    9.0877977    18.136117          120    8253.5727    29034.265   -24647.701    3763.5643    34036.331    7208.8432    9.0877977    7.8702637    18.136117    4213.3788   -2432.0304 
    2130    339.29388    1297.1819    9.0878577    9.0878578    18.136237          120    22134.149    33015.155    -21067.85   -3503.1857      35195.2   -163.63271    9.0878577    7.8703157    18.136237    11360.484   -2431.8484 
    2140    336.73783    1297.2106    9.0879247    9.0879248    18.136371          120   -1.6906838      21619.9   -34567.771    9096.6897    36662.215    7374.4534    9.0879247    7.8703738    18.136371   -4316.5206   -2431.8705 
    2150    327.99378    1297.2398    9.0879932    9.0879932    18.136508          120   -5000.3517    22224.795   -36232.138    10583.303    33781.299    13925.324    9.0879932     7.870433    18.136508   -6335.8982   -2431.7412 
    2160    324.25437     1297.269    9.0880611    9.0880612    18.136643          120    17179.874    34669.453   -25615.917   -4283.5562    32234.244    5661.8862    9.0880611    7.8704919    18.136643    8744.4701   -2431.7029 
    2170    322.39606    1297.2992    9.0881317    9.0881318    18.136784          120    11349.236    28671.816   -31386.756    946.27013    34633.751    358.33701    9.0881317     7.870553    18.136784    2878.0989   -2431.6754 
    2180    318.54609    1297.3293    9.0882019     9.088202    18.136924          120   -7773.1691    17891.378   -44421.585    13871.813    34167.998     8936.002    9.0882019    7.8706138    18.136924   -11434.459   -2431.6399 
    2190    321.78825    1297.3568    9.0882663    9.0882663    18.137053          120    5584.1045    28344.494   -37763.008     3008.187    30100.184    11230.808    9.0882663    7.8706695    18.137053   -1278.1366   -2431.7087 
    2200    321.23678    1297.3825    9.0883261    9.0883262    18.137172          120    16754.106    34485.248    -31084.56   -4362.1816    30680.662    317.37263    9.0883261    7.8707214    18.137172    6718.2645   -2431.7145 
    2210    327.24771    1297.4065    9.0883822    9.0883823    18.137284          120   -1087.0646    21565.653   -45722.144    9520.3819    33674.161   -2044.4648    9.0883822      7.87077    18.137284   -8414.5186   -2431.8324 
    2220    331.44991    1297.4264    9.0884287    9.0884288    18.137377          120   -4512.6709    19591.419   -50880.284    11430.335    30473.328    6817.0647    9.0884287    7.8708102    18.137377   -11933.845   -2431.9109 
    2230    339.86147    1297.4414    9.0884637    9.0884638    18.137447          120    13443.704    31512.749   -36106.997   -1659.8763    26869.365    4454.5817    9.0884637    7.8708405    18.137447    2949.8187   -2432.0791 
    2240    348.26936    1297.4526    9.0884898    9.0884899    18.137499          120    9242.6134    27788.854    -40726.75    1743.0917    30505.669    -7103.993    9.0884898    7.8708632    18.137499   -1231.7609   -2432.2435 
    2250    356.20367    1297.4589    9.0885048    9.0885048    18.137529          120   -6721.0783    16121.484    -56458.04    12624.604    31689.529   -4980.7157    9.0885048    7.8708761    18.137529   -15685.878   -2432.4041 
    2260    366.83089    1297.4586    9.0885039    9.0885039    18.137527          120    3451.2743    22001.889   -45347.457    5810.9047    26138.336    3100.5279    9.0885039    7.8708753    18.137527   -6631.4311   -2432.6114 
    2270    371.69017    1297.4522     9.088489     9.088489    18.137497          120     16195.14    28430.944   -35087.661   -1766.7523    25351.585   -3702.6207     9.088489    7.8708624    18.137497    3179.4744   -2432.7025 
    2280    379.24166    1297.4407    9.0884621    9.0884622    18.137444          120    2590.7059    17456.562   -50957.329    6537.0143    29960.549   -12602.183    9.0884621    7.8708392    18.137444   -10303.354   -2432.8475 
    2290    381.50889    1297.4226    9.0884198    9.0884199    18.137359          120   -4842.8719     13437.83   -53118.129    10353.902    28655.121   -6037.9566    9.0884198    7.8708025    18.137359   -14841.057    -2432.915 
    2300    381.76731    1297.3973    9.0883608    9.0883609    18.137241          120    13840.143    22601.412   -34948.136    1427.4907    22975.371   -424.59761    9.0883608    7.8707514    18.137241    497.80615   -2432.9422 
    2310    382.74923    1297.3666    9.0882892    9.0882893    18.137098          120    16947.798    19048.483   -39357.755    820.27629    24615.051   -9666.6547    9.0882892    7.8706894    18.137098   -1120.4916   -2432.9992 
    2320    376.61444    1297.3305    9.0882049     9.088205     18.13693          120   -2690.4522    9719.3957   -53903.572    8556.5652     29997.97   -14808.878    9.0882049    7.8706164     18.13693   -15624.876   -2432.9211 
    2330    376.20694    1297.2875    9.0881045    9.0881045     18.13673          120    3838.4869    15170.804   -42106.557    6350.7069    26599.145   -5104.9878    9.0881045    7.8705294     18.13673   -7699.0886   -2432.9453 
    2340    369.03279    1297.2384    9.0879899    9.0879899    18.136501          120    24097.189    18959.982   -31875.611    905.48274    20616.528   -2469.3339    9.0879899    7.8704302    18.136501    3727.1865    -2432.851 
    2350    368.29163    1297.1848    9.0878645    9.0878646    18.136251          120    9771.7631    10870.696   -46488.468    4564.4516    26872.069   -14264.264    9.0878645    7.8703216    18.136251   -8615.3362   -2432.8602 
    2360    363.63651    1297.1252    9.0877254    9.0877255    18.135973          120   -4036.6371    9802.5134   -51186.093    7781.9924    32203.831   -14672.795    9.0877254    7.8702011    18.135973   -15140.072   -2432.8142 
    2370    363.97631    1297.0588    9.0875703    9.0875703    18.135664          120    18863.285    16806.095   -35783.267    4389.5855    23358.669   -2247.9224    9.0875703    7.8700668    18.135664   -37.962454   -2432.8413 
    2380    364.43561    1296.9872    9.0874031    9.0874032     18.13533          120    21999.524     15097.34   -37463.969    3645.7012    22259.128   -5489.5537    9.0874031     7.869922     18.13533    -122.3684   -2432.8822 
    2390    363.37968    1296.9104    9.0872237    9.0872238    18.134972          120   -2431.8309    8667.3225   -53550.363    6308.7062    33574.273   -18215.238    9.0872237    7.8697667    18.134972   -15771.624   -2432.9236 
    2400    369.23251    1296.8262    9.0870272    9.0870273     18.13458          120    7311.0589     12126.07     -47968.4    6056.3363    30977.521   -11451.883    9.0870272    7.8695965     18.13458   -9510.4238   -2433.0601 
    2410    366.26296    1296.7354     9.086815     9.086815    18.134156          120    25867.265    18680.815   -35767.369    5341.4772      22032.7    73.510337     9.086815    7.8694127    18.134156    2926.9039   -2433.0466 
    2420    373.65672    1296.6392    9.0865904    9.0865904    18.133708          120    7479.6315    13872.442   -47105.535     5740.959    29876.444   -10192.299    9.0865904    7.8692182    18.133708   -8584.4872   -2433.2016 
    2430    371.56301    1296.5364    9.0863501    9.0863502    18.133229          120   -542.92684    7902.7587    -56536.35    4732.3177    36075.755   -19245.877    9.0863501    7.8690101    18.133229   -16392.173   -2433.1925 
    2440    377.15418     1296.426    9.0860923    9.0860924    18.132714          120    22192.197    17244.863   -43173.942    5368.6632    27454.646   -5145.8992    9.0860923    7.8687868    18.132714   -1245.6272   -2433.3032 
    2450    378.33753    1296.3102    9.0858216    9.0858217    18.132174          120    18866.947    22804.815   -40301.918    7326.6548    26144.127    127.33029    9.0858216    7.8685524    18.132174     456.6146   -2433.3464 
    2460    381.05621    1296.1891    9.0855388    9.0855389     18.13161          120    429.31858    10288.358   -54611.151    4397.8905    34946.995   -15473.796    9.0855388    7.8683075     18.13161   -14631.158   -2433.4075 
    2470      384.217    1296.0614    9.0852404    9.0852405    18.131014          120    14304.183      10156.2   -52762.947    2642.6013     33432.96    -14941.57    9.0852404    7.8680491    18.131014   -9434.1881   -2433.4754 
    2480    383.25275     1295.928    9.0849286    9.0849287    18.130392          120    26326.574    26509.211   -40660.591    7527.0808    26609.535    612.97788    9.0849286    7.8677791    18.130392     4058.398   -2433.4875 
    2490    386.43211    1295.7906    9.0846075    9.0846076    18.129751          120     9205.385    20213.138   -46649.916    6998.1234    30019.201   -5014.8269    9.0846075     7.867501    18.129751   -5743.7978   -2433.5692 
    2500    380.36471    1295.6483     9.084275    9.0842751    18.129088          120     6022.059    5767.1373   -55526.306    594.10251    34737.669   -17490.061     9.084275     7.867213    18.129088   -14579.036   -2433.5102 
    2510    380.86283    1295.5005    9.0839296    9.0839297    18.128398          120    24830.811    20292.243   -46001.105    3547.2239    29332.397   -7608.6857    9.0839296    7.8669139    18.128398   -292.68361   -2433.5519 
    2520    372.95518    1295.3491    9.0835757    9.0835758    18.127692          120    21381.743    28766.164   -40213.909    8849.5135    25636.023    370.48695    9.0835757    7.8666074    18.127692    3311.3329    -2433.469 
    2530     368.7188    1295.1947    9.0832148    9.0832149    18.126972          120    4377.3195    11228.941   -49994.927    3130.6615    31580.877   -10722.566    9.0832148    7.8662948    18.126972   -11462.889   -2433.4235 
    2540    363.20109     1295.036    9.0828438    9.0828439    18.126231          120    13520.992    11519.376   -50089.836   -1169.3684    31200.684   -13528.156    9.0828438    7.8659736    18.126231   -8349.8228   -2433.3741 
    2550    356.99265    1294.8736    9.0824641    9.0824642    18.125474          120     29068.27    27822.465   -38823.354    5887.3363    23263.337   -2630.7836    9.0824641    7.8656448    18.125474    6022.4604   -2433.2963 
    2560    354.57981    1294.7094    9.0820802    9.0820802    18.124707          120    14112.656    21083.769   -42037.818    8229.6497    26349.483   -3038.3626    9.0820802    7.8653122    18.124707   -2280.4642   -2433.2804 
    2570    349.75524    1294.5427    9.0816904    9.0816904    18.123929          120    2197.2179    9708.1327   -50028.122    180.92879     32094.71   -11180.156    9.0816904    7.8649747    18.123929    -12707.59   -2433.2327 
    2580    348.98511    1294.3725    9.0812923    9.0812924    18.123135          120    23650.472    19387.621   -41393.961    303.96905    23453.438   -7759.0564    9.0812923    7.8646299    18.123135    548.04393   -2433.2484 
    2590    345.74033    1294.2003    9.0808897    9.0808898    18.122332          120    28822.461    24678.092   -36099.862    9065.0085    20099.833   -1425.2137    9.0808897    7.8642813    18.122332    5800.2305    -2433.224 
    2600    344.36356    1294.0271    9.0804844    9.0804845    18.121523          120    3380.1482    14379.494   -45647.148      7713.07    30301.844   -5077.1705    9.0804844    7.8639303    18.121523   -9295.8353   -2433.2304 
    2610    342.24663     1293.851    9.0800726    9.0800726    18.120701          120    8417.4759    12121.195   -44711.129   -99.397205    26975.288   -9000.7655    9.0800726    7.8635736    18.120701   -8057.4862   -2433.2279 
    2620    338.21898    1293.6723    9.0796545    9.0796545    18.119866          120    34063.922    20014.452    -33995.47    3665.3697    15389.142    -4730.114    9.0796545    7.8632115    18.119866    6694.3013    -2433.177 
    2630    337.70725    1293.4927    9.0792344    9.0792344    18.119028          120    17648.331    18595.826   -37834.316    12205.367    23247.669   -2183.7807    9.0792344    7.8628477    18.119028   -530.05306   -2433.2086 
    2640    332.13755    1293.3115    9.0788104    9.0788104    18.118182          120   -2166.6348    10298.409   -44891.267    8020.1922    30045.135   -7036.6074    9.0788104    7.8624805    18.118182   -12253.164   -2433.1666 
    2650    332.41941    1293.1273    9.0783792    9.0783793    18.117321          120    23075.876     13006.58   -36131.664    350.83932    15984.548   -7770.6781    9.0783792    7.8621071    18.117321   -16.402734   -2433.2149 
    2660    329.84805    1292.9415    9.0779444    9.0779444    18.116454          120    31106.868    19597.418   -30908.259     7253.981     13210.45   -3098.4821    9.0779444    7.8617305    18.116454    6598.6755    -2433.191 
    2670    329.48241     1292.755    9.0775079     9.077508    18.115583          120    2525.9489    13047.297   -39554.741    15483.769    26058.215   -5426.9272    9.0775079    7.8613526    18.115583   -7993.8317   -2433.2111 
    2680    332.16745    1292.5663    9.0770662    9.0770663    18.114701          120    6324.1326    8708.0367    -38918.31     6612.754    20305.146   -9129.6643    9.0770662      7.86097    18.114701   -7962.0469   -2433.2957 
    2690    331.89514    1292.3756    9.0766199      9.07662    18.113811          120    30656.962    19131.621   -28168.121    653.48629    7810.1195   -4656.5603    9.0766199    7.8605835    18.113811    7206.8206   -2433.3212 
    2700    338.04014    1292.1852     9.076174    9.0761741    18.112921          120    17213.486    19199.549   -30524.816    12203.762    15211.882   -4280.1054     9.076174    7.8601973    18.112921    1962.7395   -2433.4576 
    2710    337.74768    1291.9947     9.075728     9.075728    18.112031          120      166.502    8526.0691   -37559.274    15570.267    20939.919   -9777.6945     9.075728    7.8598111    18.112031   -9622.2345   -2433.4738 
    2720    345.09183    1291.8035    9.0752803    9.0752804    18.111137          120    18870.552    16650.956   -28661.946    3457.3549    9887.0301   -6473.6298    9.0752803    7.8594234    18.111137    2286.5207     -2433.63 
    2730    344.77931    1291.6137     9.074836     9.074836     18.11025          120    27823.474    25834.856   -21457.629    3056.7159      6404.42   -2983.0314     9.074836    7.8590386     18.11025    10733.567    -2433.642 
    2740     350.2106    1291.4271    9.0743988    9.0743988    18.109378          120    8968.5308    14218.408   -29792.273    14036.234     14619.96   -9112.7906    9.0743988    7.8586599    18.109378   -2201.7778   -2433.7654 
    2750    351.74465    1291.2429    9.0739674    9.0739674    18.108517          120    8338.4586    12330.042   -29372.881    12090.608     13897.88   -9787.1807    9.0739674    7.8582863    18.108517   -2901.4601   -2433.8022 
    2760    353.20525     1291.062    9.0735436    9.0735437    18.107671          120    27496.558    26201.729   -15965.807     1036.196     6004.007   -3574.6976    9.0735436    7.8579193    18.107671    12577.493   -2433.8623 
    2770    357.67302    1290.8868    9.0731332    9.0731332    18.106852          120    23679.247    22312.649   -18416.758    3213.4907    7198.9429   -7285.1947    9.0731332    7.8575639    18.106852    9191.7126   -2433.9688 
    2780    354.67415    1290.7177    9.0727368    9.0727369    18.106061          120    8378.6459    10914.053    -28029.21      14194.3     14126.51   -12971.945    9.0727368    7.8572207    18.106061   -2912.1704   -2433.9418 
    2790    359.04344    1290.5539    9.0723531    9.0723531    18.105295          120    20111.971    18948.777   -16681.345     8853.056    11787.773   -7575.8397    9.0723531    7.8568883    18.105295    7459.8011   -2434.0314 
    2800    353.66982    1290.3971    9.0719857    9.0719857    18.104562          120    34262.341    24826.688   -8734.8507   -3524.4619    5488.1679   -6269.7575    9.0719857    7.8565701    18.104562    16784.726   -2433.9749 
    2810    353.82886    1290.2489    9.0716384    9.0716385    18.103869          120    19771.693    14113.644   -20983.308    5890.7453    10895.551   -13339.912    9.0716384    7.8562694    18.103869    4300.6761   -2433.9824 
    2820    347.09035    1290.1085    9.0713093    9.0713094    18.103212          120    13118.648    11400.652   -20601.598    16248.673    17046.719   -12352.799    9.0713093    7.8559844    18.103212    1305.9006   -2433.9139 
    2830    343.31976    1289.9758    9.0709982    9.0709983    18.102592          120    34866.495     20881.71    -6025.071    1101.9818    10107.729   -6809.4156    9.0709982    7.8557149    18.102592    16574.378   -2433.8811 
    2840    337.24199    1289.8529    9.0707102    9.0707102    18.102017          120    35265.799    17965.961   -10299.732   -4281.1575     8332.648   -10960.796    9.0707102    7.8554655    18.102017    14310.676   -2433.7959 
    2850    330.80184    1289.7401    9.0704457    9.0704457    18.101489          120    14650.687    8608.3789    -20169.96    13259.532    17040.369   -14672.859    9.0704457    7.8552365    18.101489     1029.702   -2433.7189 
    2860    329.16891     1289.636    9.0702017    9.0702018    18.101002          120    26001.296    14506.479   -10566.668    10144.412    15564.056    -8198.719    9.0702017    7.8550252    18.101002    9980.3689   -2433.7146 
    2870    324.23849     1289.542    9.0699813    9.0699814    18.100562          120    43716.229    20160.537   -3421.8807   -6846.4925    9158.6948   -6735.6325    9.0699813    7.8548343    18.100562    20151.629    -2433.658 
    2880    327.56366    1289.4594    9.0697877    9.0697878    18.100176          120    26211.742    9965.8019   -13768.869    1973.8446    13223.865   -13029.932    9.0697877    7.8546666    18.100176    7469.5584   -2433.7367 
    2890    328.38056    1289.3867    9.0696173    9.0696174    18.099836          120    17966.241    7541.7417     -17425.1    12414.342     16160.04   -10295.432    9.0696173    7.8545191    18.099836    2694.2942   -2433.7807 
    2900    334.01123    1289.3233    9.0694687    9.0694687    18.099539          120    39065.353     18706.29   -6071.2775    -1881.099    11256.017   -2930.1268    9.0694687    7.8543903    18.099539    17233.455   -2433.9001 
    2910    339.52991    1289.2707    9.0693453    9.0693454    18.099293          120      38653.7     13969.22   -6903.6765   -7139.8424    10347.546   -7144.0982    9.0693453    7.8542835    18.099293    15239.748   -2434.0291 
    2920    343.22151    1289.2283    9.0692459     9.069246    18.099095          120    21083.768    1981.6795   -20408.704    5093.7333    12650.065   -11304.494    9.0692459    7.8541975    18.099095    885.58127   -2434.1107 
    2930    347.35695    1289.1942    9.0691658    9.0691659    18.098935          120    28921.942     11223.06    -16162.58    2126.3439    10864.773   -2758.2541    9.0691658    7.8541281    18.098935    7994.1408   -2434.1996 
    2940    346.12224    1289.1688    9.0691063    9.0691063    18.098816          120    41240.937    18137.895   -4534.7982   -8987.1138    9024.7122      886.005    9.0691063    7.8540765    18.098816    18281.345   -2434.2056 
    2950    344.80685    1289.1529    9.0690691    9.0690692    18.098742          120    31161.414    3309.1185   -16065.921    -4646.159    9739.8104   -7116.9398    9.0690691    7.8540443    18.098742    6134.8704   -2434.2024 
    2960    338.92326    1289.1449    9.0690503    9.0690504    18.098704          120    24574.359    811.29288   -25442.232    677.87004    9836.7027   -4965.4422    9.0690503     7.854028    18.098704   -18.859909   -2434.1312 
    2970    333.47603    1289.1438    9.0690477    9.0690477    18.098699          120    34635.058    16129.575   -9625.4351   -6707.3058    8597.6431    5580.9566    9.0690477    7.8540257    18.098699    13713.066   -2434.0748 
    2980    328.34345    1289.1507     9.069064     9.069064    18.098731          120    37495.982    10978.483   -8676.0459   -9853.5511    8766.0663    1664.7236     9.069064    7.8540399    18.098731     13266.14   -2434.0186 
    2990    321.58086    1289.1653    9.0690981    9.0690982      18.0988          120    27942.541   -5054.9601   -26772.873   -2973.6907    11019.395    -5066.121    9.0690981    7.8540694      18.0988   -1295.0971   -2433.9459 
    3000    321.45592    1289.1855    9.0691456    9.0691457    18.098894          120     28024.61     5098.878   -20598.358   -3262.6229    11696.771     3158.092    9.0691456    7.8541105    18.098894    4175.0432   -2433.9732 
    3010    316.86617    1289.2117    9.0692068    9.0692069    18.099017          120    37018.302    16654.392   -7960.6374   -9743.1644    10275.528    8717.4701    9.0692068    7.8541636    18.099017    15237.352   -2433.9277 
    3020    320.29239    1289.2444    9.0692837    9.0692838     18.09917          120    33836.553    -441.1321   -20656.917   -5975.7804    13112.316    634.05812    9.0692837    7.8542302     18.09917    4246.1678    -2434.019 
    3030    320.17341    1289.2824    9.0693727    9.0693728    18.099348          120    26206.728   -8096.1231   -28171.073    173.70047    17860.424   -1554.3682    9.0693727    7.8543072    18.099348   -3353.4895   -2434.0405 
    3040    323.44906    1289.3243     9.069471    9.0694711    18.099544          120    33266.146    12262.549   -15418.787   -6111.3006     16159.26    8747.0508     9.069471    7.8543924    18.099544    10036.636   -2434.1334 
    3050    326.66421    1289.3715    9.0695815    9.0695816    18.099764          120    37486.895    12085.629   -15296.051   -8185.8046    14956.086    10489.587    9.0695815    7.8544881    18.099764    11425.491   -2434.2182 
    3060    326.95754    1289.4239    9.0697045    9.0697046     18.10001          120    27911.379   -9981.2158   -26766.692    1191.2247    21646.882    259.27366    9.0697045    7.8545946     18.10001   -2945.5094   -2434.2482 
    3070     330.5595      1289.48     9.069836    9.0698361    18.100272          120    28963.441   -790.57691   -23113.347   -577.46557    24049.189    3480.0566     9.069836    7.8547085    18.100272    1686.5055   -2434.3422 
    3080    326.91381    1289.5403    9.0699773    9.0699774    18.100554          120    38161.507     20034.33   -15283.228   -8782.5804    18772.726    17342.497    9.0699773    7.8548309    18.100554    14304.203   -2434.3043 
    3090     329.6325    1289.6064    9.0701324    9.0701325    18.100864          120    31796.776    4050.8146   -20905.365   -1543.5963    21953.031    11184.948    9.0701324    7.8549652    18.100864    4980.7419   -2434.3852 
    3100    323.52296    1289.6776    9.0702994    9.0702994    18.101197          120    25652.592   -9620.0013    -25677.65    3860.0167    28241.252    751.18348    9.0702994    7.8551098    18.101197   -3215.0198   -2434.3044 
    3110    324.69073    1289.7532    9.0704764    9.0704765     18.10155          120    35977.409    14106.691   -18562.808   -6448.6173    24108.664    15131.984    9.0704764    7.8552631     18.10155    10507.098   -2434.3568 
    3120    321.00761    1289.8349    9.0706679     9.070668    18.101932          120    37513.845    20465.584   -17159.877   -6467.0839    22278.822    22832.658    9.0706679    7.8554289    18.101932    13606.517   -2434.3195 
    3130    320.43274    1289.9234    9.0708755    9.0708756    18.102347          120    26238.514   -3008.1182   -24940.352    3499.1219    27738.728    6928.6592    9.0708755    7.8556087    18.102347   -569.98542   -2434.3213 
    3140    322.25361    1290.0173    9.0710957    9.0710958    18.102786          120    30407.223    1557.3873   -23104.361   -2454.4537    27023.673    7651.3055    9.0710957    7.8557994    18.102786    2953.4165   -2434.3672 
    3150    321.68729    1290.1173    9.0713299    9.0713299    18.103253          120    41678.214    23386.168   -16770.848   -10287.998    24200.822    24404.226    9.0713299    7.8560022    18.103253    16097.845   -2434.3651 
    3160    327.60887    1290.2248     9.071582     9.071582    18.103757          120    33272.325    12818.224   -23641.612    -1996.804     26330.53    18413.325     9.071582    7.8562205    18.103757    7482.9788   -2434.4843 
    3170    328.21909     1290.339    9.0718495    9.0718496    18.104291          120    25223.751   -2362.7124   -28767.382    164.12541    26861.314    5279.6492    9.0718495    7.8564522    18.104291   -1968.7812   -2434.5241 
    3180     335.0093    1290.4587    9.0721301    9.0721302     18.10485          120    39108.288     12999.51   -20148.731    -10416.29    25996.572    15326.096    9.0721301    7.8566952     18.10485    10653.022   -2434.6671 
    3190    336.31982    1290.5854     9.072427     9.072427    18.105443          120    42919.903    22042.793   -21213.276    -8997.167    26626.603    24192.898     9.072427    7.8569523    18.105443     14583.14   -2434.7079 
    3200    341.07074    1290.7194     9.072741     9.072741     18.10607          120    27146.901    6536.9901   -32469.041   -1471.6489    25831.855    12185.092     9.072741    7.8572242     18.10607    404.95022   -2434.8163 
    3210    342.61968    1290.8591    9.0730682    9.0730683    18.106723          120    30270.321    4023.8611   -27866.858    -7461.505    25933.243    6819.1316    9.0730682    7.8575076    18.106723    2142.4413    -2434.877 
    3220    343.43658    1291.0046    9.0734091    9.0734091    18.107403          120    46698.446    18873.656   -19652.196   -12921.471    27391.875    18995.981    9.0734091    7.8578028    18.107403    15306.635   -2434.9306 
    3230    345.35123    1291.1572    9.0737667    9.0737668    18.108116          120    37669.454    16957.518   -30718.121   -6595.8758     25688.86     20443.52    9.0737667    7.8581125    18.108116    7969.6173   -2434.9922 
    3240    342.53721    1291.3161    9.0741388    9.0741389    18.108859          120    23925.738    5059.6584   -36568.843   -4717.9476     25307.04    7755.2352    9.0741388    7.8584348    18.108859   -2527.8153   -2434.9797 
    3250    343.22693    1291.4799    9.0745226    9.0745226    18.109625          120    39058.087     11429.59   -24232.098   -11742.597    27284.917    9312.7543    9.0745226    7.8587672    18.109625    8751.8597   -2435.0102 
    3260    340.05681    1291.6498    9.0749203    9.0749204    18.110419          120    47782.851    19903.366    -25514.15   -11584.398     25798.37    20461.664    9.0749203    7.8591116    18.110419    14057.356   -2434.9751 
    3270    337.91883    1291.8259    9.0753329     9.075333    18.111242          120    28018.487    11007.678   -39234.662   -4553.8159    25652.905    15184.322    9.0753329    7.8594689    18.111242   -69.498784   -2434.9974 
    3280    335.81238    1292.0066    9.0757559     9.075756    18.112086          120    24952.759    7596.8142    -34140.33   -6865.1206    27577.594    5905.0239    9.0757559    7.8598353    18.112086   -530.25222   -2435.0039 
    3290    332.13203    1292.1912    9.0761882    9.0761883    18.112949          120    45600.228    16788.812   -24392.654   -13225.911    24988.368    13367.914    9.0761882    7.8602096    18.112949    12665.462    -2434.976 
    3300    331.19001    1292.3809    9.0766322    9.0766323    18.113835          120    38452.256    14928.545   -34182.488    -7121.641    25363.369    19282.508    9.0766322    7.8605941    18.113835    6399.4376   -2435.0079 
    3310    327.26964    1292.5743    9.0770851    9.0770852    18.114739          120    17042.928    7392.7925   -41727.864   -1573.5331    29515.989    10468.779    9.0770851    7.8609864    18.114739   -5764.0479   -2434.9655 
    3320     327.4879    1292.7697    9.0775423    9.0775423    18.115651          120    30561.206    12609.643   -31058.705   -9844.1574    25420.775    8051.9594    9.0775423    7.8613823    18.115651    4037.3813   -2434.9798 
    3330    324.96589    1292.9673    9.0780049    9.0780049    18.116574          120    43284.915    16177.708   -28720.773   -10675.862    22857.942    16324.496    9.0780049    7.8617829    18.116574    10247.283    -2434.963 
    3340    325.20148    1293.1673     9.078473    9.0784731    18.117509          120    20954.677    8871.7722   -42257.081    82.935024    30295.642    15507.008     9.078473    7.8621883    18.117509   -4143.5441    -2434.989 
    3350     325.5531    1293.3673    9.0789409    9.0789409    18.118442          120    14087.581    8199.1407   -42406.582   -2713.5986    29328.057    8720.2624    9.0789409    7.8625935    18.118442   -6706.6202   -2435.0206 
    3360    323.91858    1293.5659    9.0794056    9.0794056     18.11937          120    34935.234    14339.937   -31076.146    -11413.24    21535.763    11444.828    9.0794056    7.8629959     18.11937    6066.3416   -2435.0147 
    3370    326.96593    1293.7637    9.0798683    9.0798684    18.120293          120    28598.946    11447.085   -38791.077   -3540.6194    27263.501    15088.376    9.0798683    7.8633967    18.120293    418.31793   -2435.0877 
    3380    323.09725    1293.9589     9.080325    9.0803251    18.121205          120    7411.6701    5253.8163   -52409.707    2411.9121    33226.241    10771.227     9.080325    7.8637922    18.121205   -13248.074   -2435.0436 
    3390    325.58924    1294.1488     9.080769    9.0807691    18.122091          120    18241.485    9050.8255   -43053.775   -6932.4629    25484.248    9075.2952     9.080769    7.8641768    18.122091   -5253.8213   -2435.1198 
    3400    321.14244    1294.3329    9.0811998    9.0811998     18.12295          120    29432.057    12255.252   -38180.577   -7836.6813    24376.626     10904.11    9.0811998    7.8645498     18.12295    1168.9105   -2435.0899 
    3410    320.12789    1294.5108    9.0816158    9.0816159    18.123781          120    11122.157    5573.3152   -55842.147     1305.654    32772.332    9003.5244    9.0816158    7.8649101    18.123781   -13048.892   -2435.0949 
    3420     315.5707    1294.6794    9.0820101    9.0820102    18.124568          120    4135.4807    2732.8069   -58861.423   -615.89106    31812.265     7287.237    9.0820101    7.8652516    18.124568   -17331.045    -2435.045 
    3430    311.07929    1294.8372     9.082379     9.082379    18.125304          120    21123.846    8788.3613   -44834.694   -6907.1219    26543.939    7685.2407     9.082379     7.865571    18.125304   -4974.1621   -2435.0039 
    3440    308.00492    1294.9843    9.0827229     9.082723     18.12599          120    17898.382    7525.0041   -52849.451   -3579.7588    29462.579    5068.6604    9.0827229    7.8658689     18.12599   -9142.0217   -2434.9855 
    3450    301.36689    1295.1192    9.0830382    9.0830383    18.126619          120   -371.95214     108.7937   -68147.957    1067.1364    34009.172    3183.3537    9.0830382    7.8661419    18.126619   -22803.705   -2434.8915 
    3460    301.97793    1295.2394    9.0833193    9.0833194     18.12718          120    7968.9139    3162.6864   -57878.566   -1332.7583    31808.429    5162.6913    9.0833193    7.8663854     18.12718   -15582.322   -2434.9107 
    3470    296.68253    1295.3451    9.0835663    9.0835664    18.127673          120    20446.826    7869.1077   -50321.057   -5306.1222    28164.672    3040.1251    9.0835663    7.8665993    18.127673   -7335.0411   -2434.8382 
    3480    300.40374    1295.4365    9.0837799      9.08378    18.128099          120    5063.3262    1723.9771   -65594.279   -3021.0527    31444.922   -1696.1226    9.0837799    7.8667842    18.128099   -19602.325    -2434.915 
    3490    299.61694    1295.5117    9.0839557    9.0839558     18.12845          120   -3129.7896    -275.9692    -69992.32    1854.9997    34822.005    105.06966    9.0839557    7.8669365     18.12845   -24466.026   -2434.9301 
    3500    303.64383    1295.5698    9.0840916    9.0840917    18.128721          120    13950.325    6935.3497   -54665.103   -1415.2433    29770.768    2848.8242    9.0840916    7.8670542    18.128721   -11259.809   -2435.0162 
    3510    306.97593    1295.6121    9.0841904    9.0841904    18.128919          120    14020.551    4890.5199   -56883.659   -6551.1974    27938.822   -2726.2294    9.0841904    7.8671397    18.128919    -12657.53   -2435.0843 
    3520    308.81491    1295.6383    9.0842515    9.0842516    18.129041          120   -4095.6642   -441.03161   -72454.687   -1294.8177    34312.772    -6080.013    9.0842515    7.8671927    18.129041   -25663.794   -2435.1286 
    3530    312.23565    1295.6469    9.0842717    9.0842718    18.129081          120     1255.046    6287.7378   -64334.359    1977.7631    32291.146    458.89349    9.0842717    7.8672102    18.129081   -18930.525   -2435.2121 
    3540    310.43584    1295.6388    9.0842528    9.0842529    18.129043          120    16459.049     9190.026    -51037.83   -5446.0981    25698.416    1105.1818    9.0842528    7.8671938    18.129043   -8462.9181   -2435.2032 
    3550    310.98161    1295.6155    9.0841983    9.0841983    18.128934          120     5321.773    1757.9716   -63863.691   -6557.4607    31242.007   -7360.9569    9.0841983    7.8671465    18.128934   -18927.982   -2435.2406 
    3560      305.587     1295.576     9.084106    9.0841061     18.12875          120   -6536.3205    4345.2687   -70981.985   -676.07338    34429.591    -5328.664     9.084106    7.8670667     18.12875   -24391.012   -2435.1751 
    3570    303.09018      1295.52    9.0839753    9.0839753    18.128489          120    8399.5112    12492.381   -52621.885   -3680.5659    25479.141    3832.2861    9.0839753    7.8669534    18.128489   -10576.664   -2435.1556 
    3580    298.12622    1295.4497    9.0838108    9.0838108    18.128161          120    14502.218    6707.5146   -51137.297   -8536.4304     26597.74   -1557.8028    9.0838108     7.866811    18.128161   -9975.8548   -2435.1182 
    3590    294.53179    1295.3653    9.0836135    9.0836136    18.127767          120   -2799.8252    1151.1831    -67592.93   -6264.2249    34684.372   -8985.6508    9.0836135    7.8666402    18.127767   -23080.524   -2435.0877 
    3600    294.38201    1295.2657    9.0833807    9.0833807    18.127303          120   -2353.7864    9605.1035   -59258.266   -5580.3733     28208.89    348.98917    9.0833807    7.8664385    18.127303   -17335.649   -2435.1157 
    3610    293.34957    1295.1517    9.0831143    9.0831144    18.126771          120    13981.961    12046.668   -43858.656   -8305.6751     23170.86    5434.0824    9.0831143    7.8662078    18.126771   -5943.3425   -2435.1161 
    3620    297.77032    1295.0251    9.0828184    9.0828185    18.126181          120    6665.3482    1520.1999   -55718.158   -9604.2893    31737.673   -5590.7752    9.0828184    7.8659515    18.126181   -15844.203   -2435.2261 
    3630    301.22054    1294.8848    9.0824903    9.0824904    18.125526          120     -5967.31    1637.1151    -63484.16   -9639.0038     32150.42   -5989.9225    9.0824903    7.8656674    18.125526   -22604.785   -2435.3132 
    3640    306.69935    1294.7302    9.0821287    9.0821288    18.124804          120    5867.2331    12062.402   -46429.436   -9347.1215    23979.119    6564.4177    9.0821287    7.8653542    18.124804   -9499.9336   -2435.4435 
    3650    312.31767    1294.5629    9.0817376    9.0817376    18.124024          120      12234.4     7652.495   -43384.795   -10162.359    27371.017    3061.6269    9.0817376    7.8650155    18.124024   -7832.6334   -2435.5645 
    3660    315.23463    1294.3834    9.0813177    9.0813178    18.123186          120    -1276.585   -2738.0838   -58899.999   -12250.594     33225.29   -7500.6925    9.0813177    7.8646519    18.123186   -20971.556   -2435.6415 
    3670    319.27237    1294.1904    9.0808664    9.0808665    18.122285          120   -843.17571    5491.1821   -53454.888   -11726.747     28633.99    1257.7338    9.0808664    7.8642611    18.122285   -16268.961   -2435.7488 
    3680    317.33797     1293.985    9.0803859     9.080386    18.121326          120    11350.553    14136.743   -37756.856   -10577.125     26097.04    9933.3677    9.0803859     7.863845    18.121326   -4089.8537   -2435.7301 
    3690    317.71422     1293.769    9.0798808    9.0798808    18.120318          120    6337.3012    3094.4431   -46168.097   -12524.142    31119.924      -902.06    9.0798808    7.8634075    18.120318   -12245.451   -2435.7662 
    3700    311.53278    1293.5422    9.0793502    9.0793503    18.119259          120   -1380.6903   -1030.7285   -55319.242   -12934.647     33253.62   -4613.5648    9.0793502     7.862948    18.119259   -19243.553   -2435.6856 
    3710    307.73848    1293.3047    9.0787944    9.0787944     18.11815          120    8183.7466    13485.324   -39954.768   -11376.033    30065.144    8767.8806    9.0787944    7.8624666     18.11815   -6095.2326   -2435.6406 
    3720    301.44555    1293.0586    9.0782185    9.0782185    18.117001          120    12066.303    14558.594   -33530.851   -12155.169    29498.337    8933.1501    9.0782185    7.8619679    18.117001   -2301.9846   -2435.5653 
    3730    294.26849    1292.8052    9.0776255    9.0776255    18.115817          120    2793.9511    1104.2995   -47660.773   -12005.849    34685.652   -3955.1841    9.0776255    7.8614543    18.115817   -14587.508   -2435.4798 
    3740    291.29264    1292.5441    9.0770143    9.0770143    18.114598          120    5909.9909    6431.6934   -44807.427   -10605.394    36489.002    532.23505    9.0770143     7.860925    18.114598   -10821.914   -2435.4628 
    3750    283.92212    1292.2765    9.0763878    9.0763879    18.113347          120     14950.26    20576.428   -28456.589   -11705.162    31581.732    12660.459    9.0763878    7.8603825    18.113347    2356.6996   -2435.3566 
    3760    283.88866    1292.0048    9.0757517    9.0757518    18.112078          120    9000.4227    12691.219   -34494.428   -10575.105    33322.414    4103.3224    9.0757517    7.8598316    18.112078   -4267.5956   -2435.3851 
    3770    278.56892    1291.7291    9.0751062    9.0751063     18.11079          120    4856.6903    2942.2287    -44834.43   -7819.3242    39913.083   -6102.6876    9.0751062    7.8592726     18.11079    -12345.17     -2435.32 
    3780    279.60284    1291.4495    9.0744513    9.0744513    18.109483          120    15295.504    16827.537   -31027.607   -10263.334    36300.993    6002.5585    9.0744513    7.8587054    18.109483    365.14464    -2435.357 
    3790    276.33842    1291.1681    9.0737922    9.0737922    18.108167          120    15867.845    24401.981   -23535.285   -10293.946    32036.238    11650.725    9.0737922    7.8581346    18.108167    5578.1802   -2435.3269 
    3800    276.10942    1290.8866    9.0731326    9.0731327    18.106851          120    6605.2896    10198.394   -36944.353    -5004.495    38288.781   -3485.7429    9.0731326    7.8575634    18.106851   -6713.5563   -2435.3494 
    3810    275.33847    1290.6043    9.0724713    9.0724714    18.105531          120    12596.861    10253.423   -35521.675    -6900.066    39321.915   -4669.7513    9.0724713    7.8569907    18.105531   -4223.7971   -2435.3594 
    3820    273.09905    1290.3225    9.0718108    9.0718109    18.104213          120    21919.739    26911.593   -20237.662   -10632.637    32743.163    9992.1151    9.0718108    7.8564187    18.104213    9531.2234   -2435.3511 
    3830    275.63787    1290.0435    9.0711569     9.071157    18.102908          120    13252.004    23004.487   -25173.746   -4484.9958    34754.018    5074.0033    9.0711569    7.8558524    18.102908    3694.2482   -2435.4219 
    3840    273.58961    1289.7674    9.0705098    9.0705099    18.101617          120    8839.8725     10364.22   -35768.853   -2454.3973    38452.477   -8033.3462    9.0705098     7.855292    18.101617   -5521.5868   -2435.4039 
    3850    278.85662    1289.4938    9.0698683    9.0698684    18.100337          120    22508.118    21009.427   -25049.942    -9751.263    34045.512    575.77295    9.0698683    7.8547365    18.100337    6155.8678   -2435.5211 
    3860    280.14801    1289.2245     9.069237     9.069237    18.099077          120    22623.463    30244.573   -17465.326   -7200.1504    33458.603    9124.2076     9.069237    7.8541897    18.099077    11800.904   -2435.5705 
    3870    285.89314    1288.9606     9.068618    9.0686181    18.097842          120    9002.6394    17811.078   -30083.941   -374.35335    36264.528   -1891.7253     9.068618    7.8536537    18.097842   -1090.0746    -2435.694 
    3880    290.28828    1288.7006    9.0680084    9.0680084    18.096625          120    15561.795    14802.143   -32702.357   -6519.0726    34004.469   -6442.7237    9.0680084    7.8531257    18.096625   -779.47296    -2435.783 
    3890    294.86955    1288.4448    9.0674083    9.0674084    18.095427          120    27393.832    28085.534   -19017.266   -11101.764    33957.288    4476.7092    9.0674083    7.8526061    18.095427    12154.033   -2435.8871 
    3900    299.66094    1288.1946    9.0668213    9.0668214    18.094256          120    15270.185     26206.98   -22209.628   -3393.1627    35844.814     5363.228    9.0668213    7.8520977    18.094256    6422.5123   -2435.9766 
    3910     301.3377    1287.9491    9.0662454    9.0662454    18.093106          120    7276.4254    14829.255   -35483.131   -2560.5219    33585.886   -4519.3539    9.0662454    7.8515989    18.093106   -4459.1501   -2436.0203 
    3920    304.54773     1287.707    9.0656771    9.0656772    18.091973          120    21532.771    21569.188    -27300.84   -11746.587    34010.695   -2482.0883    9.0656771    7.8511068    18.091973    5267.0399    -2436.111 
    3930     302.8228    1287.4691    9.0651188    9.0651188    18.090858          120    22225.849     30510.83   -18519.272   -10186.093    36880.927    6392.1662    9.0651188    7.8506232    18.090858    11405.802    -2436.102 
    3940    302.17162    1287.2358    9.0645712    9.0645712    18.089765          120    5968.8792    21004.478   -31212.639   -2098.5652    34804.632    2662.8995    9.0645712     7.850149    18.089765   -1413.0939   -2436.1107 
    3950     298.6103    1287.0054    9.0640305    9.0640306    18.088686          120    8835.1617    16792.239    -34351.21   -6970.0196      33761.5   -3799.0175    9.0640305    7.8496808    18.088686   -2907.9366   -2436.0903 
    3960    293.41889    1286.7778     9.063496    9.0634961     18.08762          120    21380.773     29566.07   -21067.547   -14698.494    36673.162    2450.5289     9.063496    7.8492179     18.08762    9959.7655   -2436.0388 
    3970    289.80167     1286.554    9.0629705    9.0629706    18.086571          120    12197.278    29276.744   -24188.816   -7327.5582    36170.773    7357.6666    9.0629705    7.8487628    18.086571    5761.7351   -2436.0117 
    3980    283.02109    1286.3335    9.0624529    9.0624529    18.085538          120    1196.2371     16563.81   -34899.317   -974.32022    34270.925     871.6407    9.0624529    7.8483145    18.085538     -5713.09    -2435.924 
    3990    280.33832    1286.1151    9.0619398    9.0619399    18.084514          120    11842.649    23905.957   -26641.143   -10934.417    35339.537   -229.49921    9.0619398    7.8478702    18.084514     3035.821      -2435.9 
    4000    275.94458    1285.8995    9.0614335    9.0614335    18.083504          120    17472.259    34881.889   -20229.614   -14154.801    35889.313    6850.1847    9.0614335    7.8474317    18.083504    10708.178   -2435.8567 
    4010     274.1199    1285.6876    9.0609358    9.0609358     18.08251          120    4445.8396    22120.732   -30493.357    -1305.923    36033.923    5951.0181    9.0609358    7.8470006     18.08251   -1308.9282   -2435.8525 
    4020    273.07223     1285.478    9.0604434    9.0604435    18.081528          120     2142.002    17046.328   -32162.504   -1463.8441    36282.765    848.25416    9.0604434    7.8465742    18.081528   -4324.7247   -2435.8604 
    4030    271.72673    1285.2703    9.0599552    9.0599553    18.080554          120    14605.247    33540.876   -21851.991    -14459.38    35259.818    4039.2743    9.0599552    7.8461515    18.080554    8764.7108   -2435.8453 
    4040    273.45037    1285.0657    9.0594746    9.0594747    18.079594          120    12156.052    31122.249   -24858.631   -8156.6717    37232.781    7277.9782    9.0594746    7.8457352    18.079594    6139.8902   -2435.8977 
    4050     271.5356     1284.864    9.0590006    9.0590007    18.078649          120    461.51717    15559.602   -34926.757    4129.9812    39469.071    3476.9157    9.0590006    7.8453248    18.078649   -6301.8792   -2435.8932 
    4060    275.21032    1284.6636    9.0585295    9.0585296    18.077708          120    6710.8142    25263.578   -28349.072   -5993.5036    36362.349    2704.8622    9.0585295    7.8449168    18.077708      1208.44   -2435.9862 
    4070    273.24154    1284.4651    9.0580629     9.058063    18.076777          120    15518.881    35762.695    -21202.01   -13212.019    36230.871    5505.6996    9.0580629    7.8445127    18.076777    10026.522   -2435.9743 
    4080    276.12542    1284.2694     9.057603     9.057603    18.075859          120    6100.7588    21838.348   -32333.708      482.238    40741.898    4661.8613     9.057603    7.8441144    18.075859    -1464.867   -2436.0544 
    4090    275.60653    1284.0752    9.0571462    9.0571463    18.074948          120    1528.8941    17440.653   -36477.411    3315.5053    38648.814    3691.7069    9.0571462    7.8437188    18.074948   -5835.9546   -2436.0679 
    4100    275.27415    1283.8817    9.0566914    9.0566915     18.07404          120    13183.773    31831.607   -23030.438   -9905.9295     34624.26    4414.3861    9.0566914    7.8433249     18.07404    7328.3141   -2436.0792 
    4110    275.64561    1283.6907    9.0562422    9.0562422    18.073144          120    13481.872    30134.427   -24818.594   -7029.7769    38035.147     3410.417    9.0562422    7.8429358    18.073144    6265.9017   -2436.0964 
    4120    271.29434    1283.5019    9.0557983    9.0557984    18.072258          120    3123.8527    17565.586   -39103.973    4830.5987    39258.372    4584.2913    9.0557983    7.8425515    18.072258    -6138.178   -2436.0376 
    4130    270.72096    1283.3143    9.0553569     9.055357    18.071377          120    8579.9371     23949.64   -30650.148   -1273.1096    34528.065    6452.8921    9.0553569    7.8421692    18.071377    626.47633   -2436.0575 
    4140    263.85754    1283.1287    9.0549204    9.0549205    18.070506          120     17767.05     33453.07   -19170.216   -9471.6975    34349.434    3090.0736    9.0549204    7.8417912    18.070506    10683.301   -2435.9713 
    4150    262.34885    1282.9467    9.0544922    9.0544922    18.069651          120    10823.952    24396.483   -32732.097   -911.87431    36808.529     3076.968    9.0544922    7.8414203    18.069651     829.4462    -2435.954 
    4160    256.20824    1282.7673    9.0540701    9.0540702    18.068809          120    6891.3909     18806.08     -38712.8    4332.1706    34764.352    8243.8422    9.0540701    7.8410548    18.068809   -4338.4432   -2435.8792 
    4170    255.30222    1282.5904    9.0536539     9.053654    18.067978          120    17207.765    30079.382   -21588.761   -4977.4529    32532.702    6833.0707    9.0536539    7.8406944    18.067978    8566.1288   -2435.8827 
    4180    253.59977    1282.4176    9.0532475    9.0532475    18.067167          120    19005.886    31438.778   -22967.782   -7091.9465    32515.824    2382.7825    9.0532475    7.8403424    18.067167    9158.9605   -2435.8761 
    4190    253.16701    1282.2493    9.0528514    9.0528514    18.066377          120    11046.283    19589.923   -40156.705    2170.9788    32868.322    5548.9613    9.0528514    7.8399993    18.066377   -3173.4997   -2435.8756 
    4200    256.31072    1282.0843    9.0524629     9.052463    18.065601          120    14884.579     22838.59   -32493.872    808.07631    31911.068    10007.066    9.0524629    7.8396629    18.065601    1743.0988   -2435.9682 
    4210    256.10125    1281.9231    9.0520835    9.0520836    18.064844          120     22958.09    33890.667   -19931.791   -8840.4019    29088.785     6753.884    9.0520835    7.8393344    18.064844    12305.655   -2435.9968 
    4220    260.55433     1281.767    9.0517161    9.0517162    18.064111          120    17810.693    25903.714   -33611.447   -5546.0544    28818.925    3013.7827    9.0517161    7.8390162    18.064111    3367.6532   -2436.0944 
    4230     260.8259    1281.6151    9.0513586    9.0513586    18.063398          120    14529.489    17650.488   -42184.953    1648.8358    31326.939    7940.8728    9.0513586    7.8387065    18.063398    -3334.992   -2436.1133 
    4240    263.97234    1281.4667    9.0510093    9.0510094    18.062701          120     23487.81    29772.397   -27237.324   -5835.9095    28496.708     12597.39    9.0510093    7.8384041    18.062701    8674.2943   -2436.1933 
    4250    264.68773    1281.3233    9.0506716    9.0506716    18.062027          120    24748.261    33187.334   -26065.116   -11637.729    25160.786    6500.9149    9.0506716    7.8381116    18.062027    10623.493   -2436.2237 
    4260    265.62407    1281.1851    9.0503463    9.0503463    18.061377          120    16595.982    19803.291   -41845.139   -3184.1814    29259.612    3533.6872    9.0503463    7.8378299    18.061377   -1815.2887   -2436.2606 
    4270    266.25093     1281.051    9.0500303    9.0500304    18.060747          120    21071.134    22485.929   -38200.936   -2562.6412    30120.549    12720.969    9.0500303    7.8375562    18.060747    1785.3756    -2436.293 
    4280    264.62558    1280.9213    9.0497249    9.0497249    18.060137          120    30039.198    33995.974   -24948.455   -12302.664    24576.796    13929.402    9.0497249    7.8372917    18.060137    13028.906   -2436.2896 
    4290    264.57355    1280.7974    9.0494333    9.0494333    18.059555          120    22337.744    26442.759   -33207.098   -9477.0777    26286.984    3678.7739    9.0494333    7.8370392    18.059555     5191.135   -2436.3154 
    4300      260.974    1280.6788    9.0491538    9.0491539    18.058998          120    17018.363    19237.171    -43224.12   -2877.2249    31024.578    6480.2611    9.0491538    7.8367972    18.058998   -2322.8619   -2436.2772 
    4310    259.28714    1280.5646    9.0488848    9.0488849    18.058461          120    29404.924    28853.877   -30781.144    -9759.575     26863.94    17533.156    9.0488848    7.8365642    18.058461    9159.2191   -2436.2845 
    4320    256.19407    1280.4563    9.0486297    9.0486297    18.057952          120    30446.577    30768.611    -24326.85   -12903.058    24791.452    10340.943    9.0486297    7.8363432    18.057952    12296.113    -2436.273 
    4330     252.2674    1280.3544    9.0483897    9.0483898    18.057473          120     17228.24    21666.618   -38485.479    -6362.018    29499.306    695.26596    9.0483897    7.8361355    18.057473    136.45994   -2436.2353 
    4340    250.77638    1280.2578    9.0481622    9.0481623    18.057019          120    22954.794    23836.434   -38262.442   -8049.9776    29040.146    11513.044    9.0481622    7.8359384    18.057019    2842.9291   -2436.2326 
    4350    246.26175    1280.1671    9.0479484    9.0479485    18.056592          120     35050.41    30826.754   -22243.092   -13245.804    25868.506    17044.687    9.0479484    7.8357533    18.056592    14544.691   -2436.1752 
    4360    245.40401    1280.0838    9.0477523    9.0477524    18.056201          120    24621.285     26637.36   -27581.503   -10117.462    27497.422    2473.6097    9.0477523    7.8355834    18.056201     7892.381   -2436.1834 
    4370    241.92984    1280.0076    9.0475727    9.0475727    18.055842          120    17095.898    22527.076   -39906.686   -8480.6157    28609.257    157.67873    9.0475727    7.8354278    18.055842   -94.570656    -2436.157 
    4380    241.27589    1279.9378    9.0474081    9.0474082    18.055514          120    31562.363    28612.613   -27661.478   -12539.619    27311.961    14477.986    9.0474081    7.8352853    18.055514    10837.833   -2436.1652 
    4390    240.04206    1279.8759    9.0472623    9.0472624    18.055223          120    33645.527    31157.028   -19868.289   -12549.416    26698.414    10535.815    9.0472623    7.8351591    18.055223    14978.089   -2436.1756 
    4400    239.25967    1279.8226    9.0471368    9.0471369    18.054972          120    17829.155    25637.169   -33776.315   -10555.175     26291.65   -4470.2165    9.0471368    7.8350504    18.054972    3230.0029     -2436.18 
    4410    241.11689    1279.7769    9.0470291    9.0470291    18.054757          120     22153.41    26451.899   -34472.504   -12426.686    26784.453    2449.9833    9.0470291    7.8349571    18.054757    4710.9352   -2436.2243 
    4420    240.16437    1279.7391      9.04694    9.0469401     18.05458          120    36755.481    32969.527   -21211.423   -13654.547    26455.389     14332.41      9.04694    7.8348799     18.05458    16171.195    -2436.239 
    4430    244.78976    1279.7105    9.0468727    9.0468728    18.054445          120    25821.707    31337.825   -26007.485   -12927.108    24277.915    2794.8816    9.0468727    7.8348217    18.054445    10384.016   -2436.3375 
    4440    244.29765    1279.6906    9.0468256    9.0468257    18.054351          120    14275.381    26777.801   -36999.848   -13370.883    24842.735   -6820.1622    9.0468256    7.8347809    18.054351    1351.1115   -2436.3516 
    4450    249.75896    1279.6782    9.0467965    9.0467965    18.054293          120    30322.178    31507.211   -29163.112    -13986.93    25669.132     7017.193    9.0467965    7.8347556    18.054293    10888.759   -2436.4532 
    4460    251.95804    1279.6743    9.0467874    9.0467875    18.054275          120    34756.042    35036.308   -22878.062     -13895.4    22859.455    12243.483    9.0467874    7.8347478    18.054275    15638.096   -2436.5094 
    4470    256.56286    1279.6794    9.0467994    9.0467994    18.054299          120    15829.396    29672.537   -34039.956   -13941.615    23635.684   -3592.8417    9.0467994    7.8347582    18.054299    3820.6588   -2436.6055 
    4480    261.75748    1279.6919    9.0468289    9.0468289    18.054358          120    18952.459    28667.347   -37601.203   -13756.847     25683.23   -4497.9293    9.0468289    7.8347837    18.054358    3339.5342    -2436.707 
    4490     265.1962    1279.7115     9.046875    9.0468751     18.05445          120    36490.871    33314.824   -25699.204   -13310.057    22345.903    11320.339     9.046875    7.8348237     18.05445    14702.164   -2436.7785 
    4500    271.16329    1279.7392    9.0469402    9.0469403     18.05458          120    26286.031    30852.861   -27997.201    -12679.41     23118.32    7022.3254    9.0469402    7.8348801     18.05458    9713.8969   -2436.9114 
    4510    271.52787    1279.7741    9.0470225    9.0470226    18.054744          120    12746.913    26144.974   -40451.227   -12358.101    27314.286   -7410.4534    9.0470225    7.8349514    18.054744   -519.77983   -2436.9367 
    4520    275.09723    1279.8148    9.0471185    9.0471185    18.054936          120     28423.09    27828.632   -32143.267   -12177.919     23366.35    1113.9103    9.0471185    7.8350345    18.054936    8036.1519   -2437.0283 
    4530    271.57489     1279.862    9.0472296    9.0472297    18.055158          120    36053.997    28342.627   -22603.284   -10682.602    22038.061    12131.773    9.0472296    7.8351308    18.055158    13931.114   -2436.9773 
    4540    270.51087    1279.9162    9.0473573    9.0473574    18.055413          120    17953.485    24400.154   -35157.428    -10052.87    28384.304    745.91102    9.0473573    7.8352414    18.055413    2398.7368   -2436.9586 
    4550    265.32292    1279.9759    9.0474981    9.0474982    18.055693          120    17454.933    22895.716   -37673.477   -11509.223    25742.449   -6160.2659    9.0474981    7.8353633    18.055693    892.39063   -2436.8656 
    4560    260.16877    1280.0409    9.0476511    9.0476512    18.055999          120     36141.24    24098.301   -22072.214   -10439.094    20115.086    6699.8389    9.0476511    7.8354958    18.055999    12722.442   -2436.7996 
    4570    255.81478    1280.1123    9.0478194    9.0478195    18.056335          120    29324.004    23221.211   -25955.088    -8397.873    25527.066    9929.2078    9.0478194    7.8356416    18.056335    8863.3757   -2436.7547 
    4580    248.87083    1280.1896    9.0480015    9.0480016    18.056698          120    12528.663    20644.004       -38525   -11011.452    27098.077   -2456.5514    9.0480015    7.8357992    18.056698   -1784.1111   -2436.6553 
    4590    245.37498    1280.2713     9.048194    9.0481941    18.057082          120    25619.204    20353.888   -27673.775   -12489.937    19384.425   -1730.2138     9.048194     7.835966    18.057082    6099.7724   -2436.6287 
    4600    239.24413    1280.3583    9.0483989     9.048399    18.057491          120    36192.339    22380.197   -19880.059   -9285.3788    20390.291    10251.555    9.0483989    7.8361434    18.057491    12897.493   -2436.5599 
    4610    236.04731    1280.4511    9.0486175    9.0486176    18.057927          120    17712.962    21467.191   -33338.705   -10553.861    25191.637    7199.9568    9.0486175    7.8363327    18.057927    1947.1494   -2436.5154 
    4620    231.45977    1280.5484    9.0488466    9.0488467    18.058385          120    13363.305    18867.806   -34081.739   -14618.131    20681.734   -2548.4116    9.0488466    7.8365311    18.058385   -616.87579    -2436.458 
    4630     228.2091    1280.6498    9.0490855    9.0490856    18.058861          120    32549.864    21145.331   -20250.291   -12570.369     17484.78    3521.2197    9.0490855     7.836738    18.058861    11148.301   -2436.4453 
    4640    225.14374    1280.7567    9.0493373    9.0493373    18.059364          120    27778.495    23553.949    -25049.86   -11054.374    21043.577    11845.223    9.0493373     7.836956    18.059364    8760.8611    -2436.414 
    4650    220.74702    1280.8687     9.049601     9.049601     18.05989          120    9253.3206    20318.652   -35682.072   -15080.488    21842.692      4875.84     9.049601    7.8371844     18.05989   -2036.6996   -2436.3645 
    4660    218.62335    1280.9846     9.049874    9.0498741    18.060435          120    20466.508    19762.589   -25478.836   -15588.013    18656.955   -313.32193     9.049874    7.8374209    18.060435    4916.7535   -2436.3493 
    4670      213.778    1281.1054    9.0501584    9.0501585    18.061002          120    33633.537    23616.578    -18401.59    -12616.21     17981.97    7968.8494    9.0501584    7.8376672    18.061002    12949.508   -2436.2869 
    4680    211.64508    1281.2319    9.0504563    9.0504563    18.061597          120    16745.537    22354.013   -30180.508   -13672.877    21127.549    11203.618    9.0504563    7.8379251    18.061597    2973.0142    -2436.269 
    4690    208.83072    1281.3631    9.0507652    9.0507653    18.062213          120    9581.2898     18807.33   -30940.128   -15275.081    22070.718    3123.6771    9.0507652    7.8381927    18.062213   -850.50275   -2436.2516 
    4700    206.31938    1281.4986    9.0510843    9.0510843     18.06285          120    29489.589    20363.113   -17501.283   -13539.958    18417.137    2061.1239    9.0510843     7.838469     18.06285    10783.806   -2436.2325 
    4710    206.29838    1281.6397    9.0514164    9.0514165    18.063513          120    28980.839    21182.809   -20635.817   -12082.372    19405.993     9518.791    9.0514164    7.8387566    18.063513    9842.6105   -2436.2555 
    4720    203.69253    1281.7862    9.0517613    9.0517614    18.064201          120    9595.1742     17504.11   -31624.804   -11623.213    25147.348     8325.277    9.0517613    7.8390554    18.064201   -1508.5066   -2436.2336 
    4730     204.9499    1281.9369    9.0521161    9.0521162    18.064909          120    18772.887    16111.625   -22610.487   -11591.152     22537.88    1276.0638    9.0521161    7.8393626    18.064909    4091.3416   -2436.2646 
    4740    203.24989    1282.0923    9.0524819    9.0524819    18.065639          120    35580.202    17184.025   -13848.566   -11477.814    18402.342    3354.5619    9.0524819    7.8396793    18.065639    12971.887   -2436.2443 
    4750    205.64976    1282.2534    9.0528609     9.052861    18.066396          120    20768.369    15591.821   -25563.331   -8657.4512    25513.834    8638.9728    9.0528609    7.8400076    18.066396     3598.953   -2436.3126 
    4760    206.69903     1282.419    9.0532507    9.0532508    18.067174          120    11295.236     13327.82   -29633.794   -7271.8402    27839.554    4815.8431    9.0532507    7.8403452    18.067174   -1670.2462   -2436.3246 
    4770    210.65891    1282.5885    9.0536494    9.0536495    18.067969          120     30954.76    13712.245   -15922.187   -10331.365    19205.074    376.55735    9.0536494    7.8406905    18.067969    9581.6059   -2436.4006 
    4780    216.05344    1282.7629    9.0540598    9.0540599    18.068788          120    32773.428    14062.226   -17603.372   -9219.4149    21947.463    3865.8458    9.0540598    7.8410459    18.068788    9744.0939   -2436.4994 
    4790    219.73098    1282.9421    9.0544814    9.0544814     18.06963          120     13664.92    12509.733    -32852.13   -4669.8583    29866.454    6267.4881    9.0544814     7.841411     18.06963   -2225.8258   -2436.5698 
    4800    227.13252    1283.1244    9.0549103    9.0549104    18.070486          120    20361.119    12337.815   -26757.504    -7387.997    22320.514    2771.7908    9.0549103    7.8417824    18.070486    1980.4766   -2436.7057 
    4810    228.35733    1283.3101    9.0553471    9.0553472    18.071357          120    35563.814    13950.531   -15716.437   -10965.347    17241.167    408.17471    9.0553471    7.8421607    18.071357     11265.97   -2436.7541 
    4820    233.07892    1283.4999    9.0557936    9.0557937    18.072248          120    22961.204    14059.324   -29556.058   -6503.2242    25985.532    3139.0124    9.0557936    7.8425474    18.072248    2488.1567   -2436.8577 
    4830    231.43506    1283.6926    9.0562467    9.0562468    18.073153          120    13822.269    13400.149   -38932.662   -4869.2469    25848.002    5963.7159    9.0562467    7.8429398    18.073153   -3903.4148   -2436.8414 
    4840    231.16607    1283.8872    9.0567043    9.0567044    18.074066          120    29103.057    15467.285    -23643.55   -10369.043    16918.037    3317.7645    9.0567043    7.8433361    18.074066    6975.5973   -2436.8511 
    4850    227.85281    1284.0849    9.0571691    9.0571692    18.074993          120    30855.668    17683.261   -23804.094   -10309.074     19599.87    6.1540099    9.0571691    7.8437386    18.074993    8244.9451   -2436.8096 
    4860    223.59961    1284.2856    9.0576409     9.057641    18.075935          120     15619.21    16858.243   -42934.673   -5692.1135    25837.454    4572.6454    9.0576409    7.8441472    18.075935   -3485.7399   -2436.7808 
    4870    220.21675    1284.4878    9.0581163    9.0581163    18.076884          120     19737.51    17676.559   -37903.899    -8116.241    21566.544    8584.6264    9.0581163    7.8445589    18.076884   -163.27644   -2436.7407 
    4880    214.16039    1284.6919     9.058596    9.0585961    18.077841          120    31570.831    21349.812   -23834.091   -12229.587     17632.61    2396.6933     9.058596    7.8449744    18.077841    9695.5174   -2436.6565 
    4890    212.22403    1284.8989    9.0590825    9.0590826    18.078812          120    22275.383     21390.61   -36898.748   -9255.7082    22274.386    220.36051    9.0590825    7.8453957    18.078812    2255.7481   -2436.6273 
    4900     206.4379    1285.1079    9.0595736    9.0595737    18.079792          120    14052.001    19979.652   -47892.548   -6881.0996    25879.156    8127.7821    9.0595736     7.845821    18.079792   -4620.2985   -2436.5472 
    4910    205.15348    1285.3181    9.0600677    9.0600678    18.080778          120    25810.814    23092.513   -31970.167   -10829.886      22253.9    8048.5654    9.0600677    7.8462489    18.080778    5644.3867    -2436.542 
    4920    201.33841    1285.5308    9.0605673    9.0605674    18.081775          120    28251.025    24523.522   -28144.611   -12394.477    20038.594     93.74527    9.0605673    7.8466816    18.081775    8209.9786   -2436.4858 
    4930    198.72971    1285.7462    9.0610733    9.0610734    18.082785          120    15157.166     21394.51   -45082.212   -8001.1032    25920.315     2309.665    9.0610733    7.8471198    18.082785   -2843.5122   -2436.4519 
    4940     196.5614    1285.9632    9.0615831    9.0615832    18.083802          120    17946.736    22571.592   -42130.211   -7646.4608    28602.665    9051.1926    9.0615831    7.8475612    18.083802   -537.29417   -2436.4322 
    4950    193.01838    1286.1822    9.0620975    9.0620976    18.084829          120    29415.431    26095.012   -25688.333   -12454.862    22273.263    5286.2296    9.0620975    7.8480067    18.084829     9940.703    -2436.382 
    4960    191.99313    1286.4046    9.0626197    9.0626198    18.085871          120    21232.159    22899.212   -32774.614   -10575.607    23231.009   -273.30243    9.0626197     7.848459    18.085871    3785.5855   -2436.3747 
    4970    189.55872    1286.6298    9.0631486    9.0631487    18.086926          120    12622.165    21003.745   -44409.865   -5411.2957    31224.205    4124.4983    9.0631486     7.848917    18.086926   -3594.6516   -2436.3429 
    4980    190.08797    1286.8573    9.0636826    9.0636827    18.087992          120    24400.139    26158.656   -31780.023   -9427.3726    27094.116    8972.9712    9.0636826    7.8493795    18.087992    6259.5908   -2436.3672 
    4990    190.08765    1287.0882    9.0642247    9.0642247    18.089074          120    27470.661     25546.74   -23347.198   -12551.867    21065.016    3694.9138    9.0642247    7.8498489    18.089074    9890.0679   -2436.3831 
    5000    191.33041    1287.3231    9.0647761    9.0647762    18.090174          120    12999.675    19926.949   -36408.597   -6193.3214    28610.184   -472.91225    9.0647761    7.8503265    18.090174   -1160.6576   -2436.4302 
    5010    193.30176    1287.5608    9.0653341    9.0653342    18.091288          120    15495.597    23698.759   -38491.861   -5770.2481    31007.722    6500.3063    9.0653341    7.8508097    18.091288    234.16508   -2436.4618 
    5020    193.30247    1287.8016    9.0658992    9.0658993    18.092416          120    28356.918    28387.881   -24029.257   -12116.832    21979.629    9446.4365    9.0658992    7.8512991    18.092416    10905.181    -2436.463 
    5030    195.57861    1288.0468    9.0664746    9.0664746    18.093564          120    18918.185    22242.255   -25315.419   -8672.2473    23266.936    655.18813    9.0664746    7.8517974    18.093564    5281.6736   -2436.5158 
    5040    194.07406    1288.2959    9.0670589    9.0670589     18.09473          120    9006.5753    20068.344   -37472.787   -3755.2258    30424.555    673.15116    9.0670589    7.8523034     18.09473    -2799.289   -2436.5047 
    5050    194.63496    1288.5478    9.0676499      9.06765    18.095909          120     21908.35    28298.041   -30721.166   -9426.9455    25225.166    10783.038    9.0676499    7.8528153    18.095909    6495.0748   -2436.5282 
    5060    193.63875    1288.8039    9.0682505    9.0682506    18.097108          120    24598.095     28232.65   -20528.118   -10392.626     20546.26    7106.7064    9.0682505    7.8533354    18.097108    10767.542   -2436.5195 
    5070    192.53095    1289.0646     9.068862    9.0688621    18.098328          120    9950.3734    20185.098   -30441.076   -3866.9327    25916.176   -1436.1049     9.068862     7.853865    18.098328   -101.86813   -2436.5207 
    5080    193.53463    1289.3288    9.0694814    9.0694815    18.099565          120    12673.669    24210.918   -35597.642   -6227.8735    26695.432    6490.3389    9.0694814    7.8544014    18.099565    428.98154    -2436.554 
    5090    192.77698    1289.5965     9.070109    9.0701091    18.100817          120     24235.21    32110.465   -23362.671   -10814.986    21731.461    13006.171     9.070109    7.8549449    18.100817    10994.335   -2436.5625 
    5100    196.68648    1289.8689    9.0707477    9.0707478    18.102092          120    16046.148    25939.249   -23975.416   -6009.8437    22279.105    4309.1651    9.0707477     7.855498    18.102092    6003.3271   -2436.6485 
    5110    197.93045    1290.1454    9.0713957    9.0713958    18.103385          120    7211.3341     20499.26   -35806.679   -4220.0229    24697.246     2273.737    9.0713957    7.8560592    18.103385    -2698.695   -2436.6915 
    5120    204.27728    1290.4248    9.0720506    9.0720507    18.104692          120    17450.269    29013.135     -29404.3    -9855.508    23559.748    12157.642    9.0720506    7.8566264    18.104692     5686.368   -2436.8115 
    5130    207.77041     1290.708    9.0727143    9.0727144    18.106016          120    21030.518    31319.886   -21505.485   -9260.5544    22133.643     13115.09    9.0727143    7.8572011    18.106016     10281.64   -2436.8832 
    5140     213.4809    1290.9953    9.0733873    9.0733874    18.107359          120    8564.4288    21392.413   -31594.067   -4534.9924    22418.103    5341.5459    9.0733873     7.857784    18.107359   -545.74154   -2437.0186 
    5150    217.65378    1291.2851    9.0740663    9.0740664    18.108714          120    8813.3623    21810.542    -34235.77   -7177.1993    23658.271    7172.6205    9.0740663     7.858372    18.108714   -1203.9553   -2437.0911 
    5160    218.77357    1291.5773    9.0747507    9.0747508     18.11008          120    20468.912    30233.743   -23001.966   -10967.886    23371.464    15828.509    9.0747507    7.8589647     18.11008    9233.5629   -2437.1115 
    5170    221.06986    1291.8728    9.0754427    9.0754428    18.111461          120    14782.522    25638.957   -25239.479   -7487.2068    21614.485    14240.552    9.0754427     7.859564    18.111461    5060.6666   -2437.1662 
    5180    217.23475     1292.171    9.0761409     9.076141    18.112855          120    4145.4933    17676.163   -34627.466   -4725.7014    22686.841    6531.6971    9.0761409    7.8601687    18.112855   -4268.6034   -2437.1303 
    5190    216.54335    1292.4706    9.0768423    9.0768424    18.114254          120     13827.89    23655.515   -27788.197   -9389.5405    23770.219    10734.983    9.0768423    7.8607761    18.114254     3231.736   -2437.1427 
    5200    211.36263    1292.7722    9.0775483    9.0775483    18.115663          120     19822.17    27508.451   -21352.276   -11395.717    20853.519     19242.73    9.0775483    7.8613875    18.115663    8659.4481   -2437.0575 
    5210    209.45152    1293.0761    9.0782595    9.0782595    18.117083          120    5620.0962    19189.274   -30636.481    -6067.188    20818.798    12863.954    9.0782595    7.8620034    18.117083   -1942.3702   -2437.0425 
    5220    205.89056    1293.3808    9.0789724    9.0789725    18.118505          120    3963.2649    17507.633   -33830.449   -6180.7854    22897.366    5682.8018    9.0789724    7.8626208    18.118505   -4119.8504    -2436.992 
    5230    203.94826    1293.6854    9.0796851    9.0796852    18.119928          120    18123.386    24409.607   -24306.889   -12781.059    19389.073    14712.067    9.0796851    7.8632381    18.119928    6075.3681   -2436.9815 
    5240    202.71072    1293.9906    9.0803991    9.0803992    18.121353          120    11477.968    22295.468   -26583.291   -10889.107     18259.91    18633.714    9.0803991    7.8638564    18.121353    2396.7153   -2436.9708 
    5250    199.73021    1294.2954    9.0811121    9.0811122    18.122775          120   -3019.5485    15801.878   -37270.188   -5118.9911    21505.821    7702.8223    9.0811121    7.8644739    18.122775   -8162.6193   -2436.9439 
    5260    199.54839    1294.5979    9.0818196    9.0818196    18.124187          120    8582.3078    18648.665    -32563.94   -10305.479    18430.214    6758.0742    9.0818196    7.8650865    18.124187   -1777.6556   -2436.9447 
    5270    195.73412    1294.8982    9.0825217    9.0825218    18.125588          120    16503.123    22164.441   -26042.159   -14448.505    16180.139    16421.635    9.0825217    7.8656946    18.125588    4208.4683   -2436.8965 
    5280     194.8552    1295.1964    9.0832188    9.0832189     18.12698          120   -1091.1993    17873.262   -36020.408   -7645.2036    20686.434     13606.57    9.0832188    7.8662983     18.12698   -6412.7816   -2436.8963 
    5290    191.94653    1295.4907    9.0839067    9.0839067    18.128352          120   -3662.7194    14890.217   -40288.176   -6925.2448    18771.244     4689.617    9.0839067     7.866894    18.128352   -9686.8926   -2436.8677 
    5300    190.06766    1295.7801     9.084583     9.084583    18.129702          120    13880.617    17999.116   -29707.136   -13979.047    14862.851    8419.6789     9.084583    7.8674797    18.129702     724.1989     -2436.85 
    5310    189.18622    1296.0653    9.0852494    9.0852495    18.131032          120    7323.8311    18840.253    -32153.86   -11180.069    20123.797    14831.409    9.0852494    7.8680569    18.131032    -1996.592   -2436.8513 
    5320     187.4991    1296.3455    9.0859041    9.0859041    18.132339          120   -9689.9312    14644.031   -43227.058   -6093.7144    20961.975    9133.2827    9.0859041    7.8686238    18.132339   -12757.653   -2436.8299 
    5330    188.22433    1296.6188    9.0865427    9.0865428    18.133613          120     2448.304    12659.658    -36129.18   -11140.192      14977.4    3242.0708    9.0865427    7.8691769    18.133613   -7007.0724   -2436.8495 
    5340    187.70195    1296.8856    9.0871658    9.0871659    18.134857          120     12960.62    15247.362   -28957.339   -12788.341    18514.197    9070.6423    9.0871658    7.8697165    18.134857   -249.78583   -2436.8514 
    5350    189.07831     1297.146     9.087774     9.087774     18.13607          120    -4669.623     14631.55   -40709.385   -7795.5245    23444.474    12950.312     9.087774    7.8702432     18.13607   -10249.153   -2436.8807 
    5360    189.17725    1297.3983    9.0883631    9.0883632    18.137246          120   -9953.5835    9388.1941   -42622.979   -8925.1927    18308.129    5805.8084    9.0883631    7.8707534    18.137246   -14396.123   -2436.9012 
    5370    189.58398    1297.6415    9.0889311    9.0889312    18.138379          120    8232.9053    8591.0563   -29508.178   -12087.873    17102.545    3195.0142    9.0889311    7.8712453    18.138379    -4228.072   -2436.9195 
    5380    190.48496    1297.8764    9.0894794    9.0894795    18.139474          120    5344.4912    11285.826   -33887.397   -9857.6118    23015.684    10886.991    9.0894794    7.8717201    18.139474   -5752.3601   -2436.9453 
    5390    189.17284    1298.1022    9.0900065    9.0900065    18.140525          120   -12871.947     8164.532   -45273.408   -9017.2839    22793.979    11612.406    9.0900065    7.8721766    18.140525   -16660.275   -2436.9246 
    5400     191.2199    1298.3173    9.0905084    9.0905085    18.141527          120   -4227.8852    3734.6929   -35401.189   -10990.602    18586.805    3844.8235    9.0905084    7.8726113    18.141527   -11964.794   -2436.9726 
    5410    190.36357    1298.5217    9.0909856    9.0909856    18.142479          120    10161.128    5367.8823   -28497.221   -10997.592    19698.858    5295.9765    9.0909856    7.8730245    18.142479   -4322.7368   -2436.9552 
    5420    192.85627    1298.7159    9.0914388    9.0914388    18.143384          120     -4975.86    6202.0514   -41529.897   -10878.197    23064.378     12930.64    9.0914388     7.873417    18.143384   -13434.569   -2437.0209 
    5430    193.61925    1298.8984    9.0918646    9.0918647    18.144234          120   -14895.953    2591.2268   -43689.545   -11738.242    21727.114    9811.8705    9.0918646    7.8737858    18.144234   -18664.757    -2437.052 
    5440    194.69817    1299.0682    9.0922607    9.0922608    18.145024          120    4156.6988    1006.1943   -31060.232   -11635.875    17515.918    3108.4007    9.0922607    7.8741289    18.145024   -8632.4463   -2437.0777 
    5450    195.87684     1299.226    9.0926288    9.0926289    18.145759          120    5824.2827    2731.8224   -34616.289   -12243.989    18612.511     7937.047    9.0926288    7.8744476    18.145759    -8686.728     -2437.11 
    5460    194.14095    1299.3714    9.0929681    9.0929682    18.146436          120   -15283.559    2821.6475   -46692.456   -13633.971    22774.702    13432.964    9.0929681    7.8747415    18.146436   -19718.123   -2437.1003 
    5470    194.49024     1299.503    9.0932751    9.0932752    18.147049          120   -8517.3095    977.71742   -39953.806   -13056.557    19062.754    7391.5485    9.0932751    7.8750073    18.147049   -15831.133   -2437.1205 
    5480    190.38433     1299.621    9.0935503    9.0935503    18.147598          120    9679.4914    484.82374   -31368.079   -12455.518     14565.02    3300.0424    9.0935503    7.8752456    18.147598   -7067.9213   -2437.0625 
    5490    190.02266    1299.7263    9.0937958    9.0937959    18.148088          120   -5521.2855    2091.8492   -41168.789   -13887.086    20634.054    9939.1204    9.0937958    7.8754583    18.148088   -14866.075   -2437.0783 
    5500    185.45988     1299.818    9.0940097    9.0940097    18.148515          120   -17358.794     2595.705   -46868.914   -14380.739    22864.295    12194.477    9.0940097    7.8756435    18.148515   -20544.001   -2437.0127 
    5510    183.93028    1299.8954    9.0941903    9.0941904    18.148875          120    3321.9691    1070.8077   -35077.959   -12780.631    15023.273    4984.4223    9.0941903    7.8757999    18.148875   -10228.394   -2437.0075 
    5520    180.97954      1299.96    9.0943409     9.094341    18.149176          120    5851.3601    1475.3029    -32959.99   -12177.861     17217.43    3963.2632    9.0943409    7.8759303    18.149176   -8544.4422   -2436.9647 
    5530    177.71411    1300.0122    9.0944625    9.0944625    18.149418          120   -14890.655    3288.3778   -45116.276   -13275.803     25268.66    10542.897    9.0944625    7.8760356    18.149418   -18906.185   -2436.9151 
    5540    176.48753    1300.0509    9.0945529     9.094553    18.149599          120   -7143.5028    2566.0055   -41512.463   -12929.999    19978.346    9768.9996    9.0945529    7.8761139    18.149599    -15363.32   -2436.9008 
    5550    172.58805    1300.0772    9.0946141    9.0946141    18.149721          120    10285.863    2321.2475   -29159.017   -10509.286    15849.809    3185.7869    9.0946141    7.8761669    18.149721   -5517.3022   -2436.8343 
    5560    172.38978    1300.0925    9.0946498    9.0946499    18.149792          120   -3034.2638    3983.0085    -36509.16   -10196.079    24163.216    4487.7821    9.0946498    7.8761979    18.149792   -11853.472   -2436.8345 
    5570    169.24319    1300.0966    9.0946594    9.0946595    18.149811          120   -12180.373    3523.9865   -44481.729   -11399.748     25837.15    10091.552    9.0946594    7.8762062    18.149811   -17712.705   -2436.7947 
    5580    169.72298    1300.0894    9.0946426    9.0946426    18.149778          120    5945.3646    3490.8104   -32049.785   -9183.9333    18923.552    7652.4218    9.0946426    7.8761916    18.149778   -7537.8701   -2436.8216 
    5590    168.17622    1300.0725    9.0946032    9.0946033    18.149699          120    9059.8295    5528.8693   -28398.715    -7165.113    21232.247    1807.0965    9.0946032    7.8761575    18.149699   -4603.3386   -2436.8004 
    5600    168.64769    1300.0468    9.0945432    9.0945433    18.149579          120   -7357.0449    5098.0998   -41210.881   -9019.8024    27808.237    4994.8851    9.0945432    7.8761055    18.149579   -14489.942   -2436.8328 
    5610    169.35682    1300.0116    9.0944611    9.0944612    18.149415          120   -2282.6212     4684.303   -38183.344    -8063.194    24905.259    10634.826    9.0944611    7.8760344    18.149415   -11927.221   -2436.8574 
    5620    169.48232    1299.9677    9.0943587    9.0943588    18.149211          120    12977.968    7405.3621   -26072.408   -4784.3336    20609.815    5894.8158    9.0943587    7.8759458    18.149211    -1896.359   -2436.8709 
    5630    172.26932    1299.9167    9.0942399      9.09424    18.148974          120      3902.44     7856.135   -33381.151   -6891.9443    24416.145    1100.9578    9.0942399    7.8758428    18.148974   -7207.5254   -2436.9181 
    5640    172.76473    1299.8585    9.0941041    9.0941042    18.148703          120   -6721.7428    6854.7689   -41429.276   -8259.7451    27836.547    8026.0999    9.0941041    7.8757253    18.148703   -13765.417   -2436.9373 
    5650    175.83786    1299.7928    9.0939509    9.0939509    18.148397          120    7158.1183    9293.8762   -30233.686   -3792.2498    22922.252    11870.426    9.0939509    7.8755925    18.148397    -4593.897   -2437.0213 
    5660    177.18466    1299.7209    9.0937833    9.0937833    18.148063          120    13335.321    10907.339   -26392.167    -4470.252    19661.304    4218.7731    9.0937833    7.8754474    18.148063   -716.50196   -2437.0617 
    5670    178.59926    1299.6438    9.0936034    9.0936035    18.147704          120    -2999.524    9711.1061   -37519.858   -9240.9143     24540.26    3943.0755    9.0936034    7.8752916    18.147704   -10269.425   -2437.0967 
    5680    180.06363    1299.5608    9.0934097    9.0934098    18.147317          120    -2626.259     11194.61   -35663.215   -5832.2883    25054.127    13292.844    9.0934097    7.8751239    18.147317   -9031.6211   -2437.1324 
    5690    180.18277    1299.4724    9.0932036    9.0932037    18.146906          120    14873.984    13423.883   -24816.224   -2377.5916    17866.386    12213.751    9.0932036    7.8749454    18.146906    1160.5475   -2437.1627 
    5700    181.92848    1299.3802    9.0929887    9.0929887    18.146477          120    7347.9998    12278.093   -28815.194   -8177.1177    18549.068    5004.6428    9.0929887    7.8747593    18.146477   -3063.0335   -2437.1929 
    5710     182.2311    1299.2842    9.0927647    9.0927648     18.14603          120   -7931.2394     12061.03    -35890.04   -9521.8061     24333.23    9717.2424    9.0927647    7.8745653     18.14603    -10586.75   -2437.2124 
    5720    185.12606    1299.1838    9.0925304    9.0925305    18.145562          120     6848.719    14078.427   -28154.755   -3160.0113    19710.636    16977.015    9.0925304    7.8743624    18.145562   -2409.2029   -2437.2815 
    5730    186.78958      1299.08    9.0922882    9.0922883    18.145079          120    15839.051    13512.276   -22901.254    -4709.657    15172.297    11898.952    9.0922882    7.8741526    18.145079    2150.0243   -2437.3166 
    5740    189.34293    1298.9734    9.0920396    9.0920397    18.144583          120   -3958.2776    11777.991   -31289.855    -10443.54    21202.341    6928.7293    9.0920396    7.8739373    18.144583   -7823.3806   -2437.3725 
    5750    192.04955    1298.8629    9.0917816    9.0917817    18.144068          120   -4519.7359     12060.76    -32894.56   -6855.3755    22766.125    13826.353    9.0917816    7.8737139    18.144068   -8451.1784   -2437.4311 
    5760    192.11342     1298.748    9.0915135    9.0915136    18.143533          120    15045.274    11822.215   -23642.727   -2696.2444      16691.8    17707.886    9.0915135    7.8734818    18.143533    1074.9209   -2437.4573 
    5770     194.1792    1298.6295    9.0912372    9.0912373    18.142982          120    5886.6784    10452.301   -26028.385   -7140.4696    18265.031     9960.333    9.0912372    7.8732424    18.142982   -3229.8019   -2437.4957 
    5780    191.76661    1298.5066    9.0909504    9.0909504    18.142409          120   -9818.1674    9081.5229   -36130.131   -9257.1649    23572.354    7674.5178    9.0909504     7.872994    18.142409   -12288.925   -2437.4672 
    5790    191.70649    1298.3776    9.0906493    9.0906494    18.141808          120    5833.3998    7636.0912   -30426.989   -4235.8049    21188.928    15842.126    9.0906493    7.8727333    18.141808   -5652.4995   -2437.4879 
    5800    188.27075    1298.2427    9.0903345    9.0903346     18.14118          120    13186.532    7019.8913   -23830.715   -2901.9072    18583.073    15831.601    9.0903345    7.8724607     18.14118   -1208.0972   -2437.4315 
    5810    185.86652    1298.1018    9.0900056    9.0900057    18.140524          120   -5033.8557    6170.6603   -35738.647   -7220.2376    21893.298    6920.4376    9.0900056    7.8721758    18.140524   -11533.948   -2437.4067 
    5820    182.77608     1297.953    9.0896582    9.0896582     18.13983          120   -4181.4388    3739.1563     -40336.3   -6736.2309    24163.776    8478.7368    9.0896582     7.871875     18.13983   -13592.861   -2437.3697 
    5830    179.26618    1297.7953    9.0892902    9.0892902    18.139096          120     12242.72    2452.1336   -28116.068   -1520.2665    22097.283    16410.727    9.0892902    7.8715563    18.139096   -4473.7382   -2437.3252 
    5840    178.28143    1297.6293    9.0889024    9.0889025    18.138322          120    4778.0795     2698.546   -32013.699   -2465.4424    20897.457     12012.33    9.0889024    7.8712205    18.138322   -8179.0246   -2437.3243 
    5850     175.2659    1297.4536    9.0884924    9.0884924    18.137504          120   -8169.0749    1656.2917   -46589.324   -6847.6425    23021.927    4351.6035    9.0884924    7.8708654    18.137504   -17700.702   -2437.2939 
    5860    177.35768    1297.2668    9.0880561    9.0880561    18.136633          120    3410.0225    219.64637   -38901.814   -3541.3643    24528.598    9840.5127    9.0880561    7.8704875    18.136633   -11757.382   -2437.3446 
    5870    176.28733    1297.0689    9.0875939    9.0875939    18.135711          120    11171.921    144.12859   -30424.366    793.78027    21964.589    14888.971    9.0875939    7.8700872    18.135711    -6369.439    -2437.332 
    5880     179.5209      1296.86    9.0871061    9.0871062    18.134737          120     -3838.39    612.97508   -44100.464   -3625.8066    20531.082    7254.7746    9.0871061    7.8696648    18.134737   -15775.293   -2437.4009 
    5890    180.69127    1296.6389    9.0865896    9.0865897    18.133707          120   -7203.4815    927.22862   -48525.424   -6002.5644    23168.142    3627.3039    9.0865896    7.8692175    18.133707   -18267.226   -2437.4341 
    5900    182.53657    1296.4051    9.0860433    9.0860434    18.132616          120    8770.9718     1044.633   -34874.711   -167.11444    22941.888    10898.741    9.0860433    7.8687444    18.132616   -8353.0353   -2437.4812 
    5910    184.35762    1296.1596    9.0854698    9.0854698    18.131472          120     5388.204    1274.0008   -36929.869     578.7538    19670.067    11696.089    9.0854698    7.8682477    18.131472   -10089.221   -2437.5208 
    5920    183.82318    1295.9024    9.0848689    9.0848689    18.130273          120   -10780.221    2581.4028   -48703.107    -5149.168    20399.219    4123.4826    9.0848689    7.8677273    18.130273   -18967.308   -2437.5271 
    5930    184.86101    1295.6329     9.084239    9.0842391    18.129016          120   -491.19232    4167.9175   -41566.649   -3833.2719    22127.047    4564.8572     9.084239    7.8671819    18.129016   -12629.975   -2437.5603 
    5940    182.42154    1295.3522     9.083583    9.0835831    18.127706          120    12373.175    4753.1301   -32586.106    1682.7994    20016.671     11361.95     9.083583    7.8666137    18.127706   -5153.2669   -2437.5418 
    5950    182.46005    1295.0618    9.0829041    9.0829042    18.126352          120   -3585.7698    5431.7985    -40562.25   -963.67341    19219.299    9394.6325    9.0829041    7.8660258    18.126352   -12905.407   -2437.5578 
    5960    179.74952    1294.7616    9.0822022    9.0822022    18.124951          120    -8932.564    7154.1984   -44031.477   -5596.0526    20705.009    3159.4243    9.0822022    7.8654179    18.124951   -15269.947   -2437.5225 
    5970    179.31212    1294.4519    9.0814781    9.0814782    18.123506          120    11810.505    9103.5521    -33562.95   -1859.4764     20238.73    6727.9162    9.0814781    7.8647909    18.123506   -4216.2976   -2437.5245 
    5980    178.46231    1294.1351     9.080737    9.0807371    18.122027          120    9043.9841     10152.65   -31828.686    1393.8396    19710.362    12478.058     9.080737     7.864149    18.122027   -4210.6839   -2437.5385 
    5990    177.93382    1293.8118    9.0799808    9.0799808    18.120518          120   -9083.8747    10666.128    -40349.94   -3718.1659    20268.523    7916.0069    9.0799808    7.8634941    18.120518   -12922.562   -2437.5247 
    6000    179.53691    1293.4818    9.0792089     9.079209    18.118977          120    4640.9019    11826.827   -37469.793   -6466.9213    19984.927     3935.794    9.0792089    7.8628256    18.118977    -7000.688   -2437.5673 
    6010    179.33869    1293.1467    9.0784248    9.0784249    18.117412          120    18681.592    13797.367   -28031.092   -1809.9927    20511.768    10306.219    9.0784248    7.8621466    18.117412    1482.6222   -2437.5648 
    6020    181.06652    1292.8082    9.0776326    9.0776326    18.115831          120    710.89023    14335.757   -32978.748   -1658.3246    21209.013    13017.494    9.0776326    7.8614605    18.115831   -5977.3668    -2437.622 
    6030    180.81265     1292.466    9.0768315    9.0768316    18.114233          120   -2478.0867    13635.984   -39574.809   -7880.9362    20155.805    6522.0221    9.0768315    7.8607668    18.114233   -9472.3038   -2437.6372 
    6040    180.45518    1292.1203    9.0760222    9.0760222    18.112618          120    19353.902    14628.815   -30541.315   -7747.4424    20685.565    6530.8295    9.0760222    7.8600658    18.112618     1147.134   -2437.6597 
    6050    179.20818    1291.7729    9.0752087    9.0752088    18.110994          120    15636.148    16293.839   -26403.639    -3185.934    22787.904    13325.639    9.0752087    7.8593614    18.110994    1842.1161   -2437.6401 
    6060    176.51571    1291.4244    9.0743926    9.0743927    18.109366          120   -1316.9458     15125.77   -36353.717   -6470.8818    21866.525    11480.611    9.0743926    7.8586546    18.109366   -7514.9643   -2437.6099 
    6070    174.97104    1291.0743    9.0735724    9.0735725    18.107729          120    12260.245    14496.238   -35172.835   -11447.381    20744.453    5939.1356    9.0735724    7.8579443    18.107729   -2805.4505   -2437.6027 
    6080     171.5356    1290.7236    9.0727507    9.0727508    18.106089          120     26029.05    16759.281   -25277.831    -8287.712    22992.072    9483.6045    9.0727507    7.8572327    18.106089    5836.8334   -2437.5658 
    6090    170.79139    1290.3736    9.0719306    9.0719307    18.104452          120    10277.218     16372.98   -30037.972   -6269.8644    24196.977    13472.043    9.0719306    7.8565224    18.104452   -1129.2579   -2437.5721 
    6100    168.57592    1290.0239    9.0711111    9.0711112    18.102817          120    4805.1361    14671.735   -36572.013    -11289.08    22319.093    9162.2886    9.0711111    7.8558128    18.102817   -5698.3808   -2437.5474 
    6110    168.28714    1289.6746    9.0702922    9.0702923    18.101183          120    24358.963    16928.906   -28421.308   -12875.781    22049.966    6663.9078    9.0702922    7.8551036    18.101183    4288.8535   -2437.5671 
    6120    168.29942     1289.327    9.0694774    9.0694775    18.099557          120    25103.302    18157.231   -25345.919   -9416.4043    24621.701    10870.024    9.0694774    7.8543979    18.099557    5971.5382   -2437.5794 
    6130    167.17316    1288.9819     9.068668    9.0686681    18.097941          120    6816.0328    15791.723   -32711.768   -10189.721    25740.006    12146.408     9.068668     7.853697    18.097941    -3368.004   -2437.5711 
    6140    168.42243    1288.6387     9.067863    9.0678631    18.096335          120    14032.321    16967.074   -29993.534   -13613.508    23407.022    8003.2169     9.067863    7.8529998    18.096335    335.28701   -2437.5926 
    6150    166.16484    1288.2983    9.0670646    9.0670647    18.094742          120    32099.685    20086.981   -22846.682   -13044.204    23045.127    7332.0825    9.0670646    7.8523084    18.094742    9779.9946   -2437.5675 
    6160    166.66213    1287.9625    9.0662768    9.0662769    18.093169          120     19572.92      18851.1    -26151.25   -11304.876     27624.65    11295.814    9.0662768    7.8516261    18.093169    4090.9236   -2437.6134 
    6170    163.94098    1287.6314    9.0654997    9.0654997    18.091618          120    6792.9949    17684.834   -27776.956    -12308.59    28115.481    11107.758    9.0654997    7.8509531    18.091618   -1099.7092   -2437.5733 
    6180    163.65461    1287.3049    9.0647334    9.0647335    18.090089          120    26454.894    20860.194   -20756.866   -13914.456     23335.06    7151.5651    9.0647334    7.8502895    18.090089    8852.7406   -2437.5742 
    6190    162.15644     1286.985    9.0639825    9.0639825    18.088591          120    33121.444    22463.497   -19575.402   -13954.607    25772.908    7920.4561    9.0639825    7.8496392    18.088591     12003.18   -2437.5611 
    6200    161.97532    1286.6727    9.0632492    9.0632493    18.087127          120    11401.684    20482.578   -23702.016   -12498.933    31998.115    11341.706    9.0632492    7.8490042    18.087127    2727.4151   -2437.5758 
    6210    163.57455    1286.3675    9.0625326    9.0625327    18.085697          120    14957.765    20984.526   -20392.566   -12380.792    28167.331    9516.8524    9.0625326    7.8483836    18.085697    5183.2418   -2437.6135 
    6220    163.63462    1286.0702    9.0618344    9.0618345    18.084304          120    36532.278    23821.746   -15824.076   -14862.337    24435.861    6178.7168    9.0618344    7.8477789    18.084304    14843.316   -2437.6237 
    6230    167.29183    1285.7823    9.0611581    9.0611581    18.082954          120    24714.664     23672.01   -19714.759   -14542.467    31669.253    8015.5679    9.0611581    7.8471932    18.082954     9557.305   -2437.6962 
    6240    167.04213    1285.5033    9.0605028    9.0605029    18.081646          120     9288.351    21835.253   -22534.866   -11306.779    34400.804    10033.666    9.0605028    7.8466257    18.081646    2862.9125   -2437.7076 
    6250    169.50686    1285.2328    9.0598671    9.0598671    18.080378          120    28675.556    22816.131    -16918.93   -12570.636    27758.922    7401.6184    9.0598671    7.8460751    18.080378    11524.252   -2437.7621 
    6260    168.36631    1284.9716    9.0592535    9.0592535    18.079153          120    36234.146    24296.755   -16169.169   -15336.885    29233.363    5312.2303    9.0592535    7.8455437    18.079153    14787.244   -2437.7534 
    6270    167.61733    1284.7203    9.0586629    9.0586629    18.077974          120    15501.186    22863.788   -23429.362   -12436.542    36531.737    7217.4012    9.0586629    7.8450323    18.077974    4978.5373   -2437.7526 
    6280    165.73806    1284.4777    9.0580925    9.0580926    18.076836          120    17530.915    21682.302   -21755.185   -9707.1063    33829.761    8480.5629    9.0580925    7.8445383    18.076836    5819.3441   -2437.7279 
    6290    162.98054    1284.2438    9.0575427    9.0575428    18.075739          120    36991.145     23168.79   -14799.873   -12443.376    28966.437    6191.9232    9.0575427    7.8440621    18.075739    15120.021   -2437.6801 
    6300    161.88049    1284.0196    9.0570156    9.0570157    18.074687          120    28341.679     23104.96   -20905.839   -13739.319    33262.899    4376.8368    9.0570156    7.8436057    18.074687    10180.267   -2437.6873 
    6310    159.67766    1283.8044    9.0565096    9.0565096    18.073677          120    13418.066    21257.898   -26816.402    -10118.71    36621.689    6683.7256    9.0565096    7.8431674    18.073677    2619.8538   -2437.6679 
    6320    161.06806    1283.5971    9.0560221    9.0560222    18.072704          120    26392.963    21885.611   -17777.837   -8227.0198    31314.221    8090.2795    9.0560221    7.8427453    18.072704    10166.912   -2437.7019 
    6330    161.18795    1283.3984    9.0555548    9.0555548    18.071772          120    35541.675    22852.298   -16875.773   -11507.033    28307.082    4471.8686    9.0555548    7.8423405    18.071772      13839.4   -2437.7132 
    6340    163.74627    1283.2083    9.0551078    9.0551078     18.07088          120    19451.774    21334.057   -28427.417   -12636.242    32534.598    3622.8985    9.0551078    7.8419534     18.07088    4119.4716   -2437.7751 
    6350    165.59424    1283.0256    9.0546779    9.0546779    18.070022          120    14529.835    21047.195   -24552.261   -8030.7594    32667.928    7706.9289    9.0546779    7.8415811    18.070022     3674.923   -2437.8233 
    6360    166.34727    1282.8498    9.0542643    9.0542644    18.069196          120    30193.946    22589.034   -14830.576    -7094.997    25634.357    6859.4127    9.0542643     7.841223    18.069196    12650.801   -2437.8586 
    6370    167.25145    1282.6816    9.0538687    9.0538687    18.068407          120    28319.205     22064.24   -24392.441   -12188.409    24356.316    2825.8257    9.0538687    7.8408803    18.068407    8663.6682   -2437.8729 
    6380    165.17378    1282.5205    9.0534894    9.0534895     18.06765          120    11796.606     21015.23   -30694.048   -11513.752    29130.966     5219.008    9.0534894    7.8405519     18.06765    705.92944   -2437.8555 
    6390    163.72737    1282.3652    9.0531241    9.0531241    18.066921          120    18247.784    22370.913    -18073.49    -5696.374    25582.627    8605.5426    9.0531241    7.8402355    18.066921    7515.0688    -2437.843 
    6400    160.38705    1282.2164     9.052774    9.0527741    18.066222          120    30935.175    23157.083   -17642.895   -8004.9455    18555.127    5556.4298     9.052774    7.8399323    18.066222    12149.787   -2437.7944 
    6410    157.62062    1282.0746    9.0524402    9.0524402    18.065556          120    18039.992    21970.774   -30732.563   -13242.798    21599.041     3518.662    9.0524402    7.8396432    18.065556    3092.7343   -2437.7658 
    6420    155.10616    1281.9385    9.0521199      9.05212    18.064917          120    9803.6714    22301.069   -26555.324   -8613.7982    24721.265    7474.7543    9.0521199    7.8393659    18.064917    1849.8053   -2437.7485 
    6430    152.42948    1281.8079    9.0518125    9.0518125    18.064303          120    25692.104    23763.322    -16364.68   -4429.8191    18106.675    9287.9516    9.0518125    7.8390996    18.064303    11030.249   -2437.7143 
    6440    151.74304    1281.6837      9.05152      9.05152     18.06372          120    25971.171    23163.979   -24901.531   -10337.021    15598.804    5509.5593      9.05152    7.8388463     18.06372    8077.8728   -2437.7081 
    6450    149.27416    1281.5653    9.0512414    9.0512414    18.063164          120    9929.6796    22259.111   -33035.202   -12026.117    20878.622     4849.172    9.0512414     7.838605    18.063164   -282.13692    -2437.685 
    6460    149.69941    1281.4518    9.0509741    9.0509741     18.06263          120    17854.763    23461.587    -23628.59    -4851.145    20228.888    9832.0293    9.0509741    7.8383735     18.06263    5895.9198   -2437.7104 
    6470    147.66394    1281.3436    9.0507194    9.0507195    18.062122          120    29866.522    23935.645   -19976.508   -4880.9521    15415.449    10379.125    9.0507194     7.838153    18.062122     11275.22   -2437.6861 
    6480    147.30832    1281.2414    9.0504787    9.0504788    18.061642          120    17071.602    22054.846   -31150.635   -11253.723    16928.931    5345.7532    9.0504787    7.8379445    18.061642    2658.6044   -2437.6858 
    6490    146.36411    1281.1441    9.0502495    9.0502496    18.061184          120    13120.408    21562.301   -32192.363   -8399.5202    20659.226    6697.6346    9.0502495    7.8377461    18.061184    830.11503   -2437.6914 
    6500    144.69757    1281.0514    9.0500314    9.0500315    18.060749          120    28504.121     23544.82   -21153.086    -1645.299    19338.216    12842.964    9.0500314    7.8375572    18.060749    10298.619   -2437.6672 
    6510    144.91477    1280.9647    9.0498271    9.0498271    18.060341          120    25953.106    22736.131   -23806.007   -5393.3363    17432.102    10290.289    9.0498271    7.8373802    18.060341    8294.4097   -2437.6828 
    6520    142.72894    1280.8836    9.0496362    9.0496363     18.05996          120    14270.137    19831.894    -33992.77   -10423.292    19668.724    5005.4468    9.0496362    7.8372149     18.05996    36.420448   -2437.6542 
    6530    143.68174    1280.8075     9.049457     9.049457    18.059603          120    23703.436     21719.12   -27204.901   -3895.9932    22590.532    10385.401     9.049457    7.8370597    18.059603    6072.5516   -2437.6799 
    6540    141.73873    1280.7372    9.0492915    9.0492916    18.059272          120     31066.12    24142.003   -18399.714    582.41608    21836.364    14738.768    9.0492915    7.8369164    18.059272    12269.469   -2437.6506 
    6550    142.75639    1280.6737    9.0491419     9.049142    18.058974          120    20337.318    20843.821   -27981.425   -6971.9554    20482.878    8175.1049    9.0491419    7.8367868    18.058974     4399.905    -2437.678 
    6560    141.50613    1280.6163    9.0490066    9.0490067    18.058704          120    19168.082    20197.814   -32617.434   -8763.9568    22942.636    6831.9644    9.0490066    7.8366697    18.058704    2249.4873   -2437.6727 
    6570    141.41384     1280.565    9.0488858    9.0488859    18.058463          120    30207.757    24879.293   -19584.435    203.08023    25354.085    14602.846    9.0488858    7.8365651    18.058463    11834.205   -2437.6742 
    6580    141.19142    1280.5212    9.0487826    9.0487827    18.058257          120    27166.881    24405.595   -19112.728   -733.37677    23283.127    13777.564    9.0487826    7.8364757    18.058257    10819.916   -2437.6786 
    6590     139.2428    1280.4851    9.0486975    9.0486976    18.058087          120    18252.116    21494.617   -31810.505   -9802.9798    22212.407    7385.8714    9.0486975     7.836402    18.058087    2645.4093    -2437.643 
    6600     139.6225    1280.4561    9.0486292    9.0486292    18.057951          120    24914.683    25111.657   -26008.244   -6118.2803    24933.817    11352.481    9.0486292    7.8363428    18.057951    8006.0322   -2437.6729 
    6610    136.98398     1280.435    9.0485796    9.0485797    18.057852          120    31223.809    28406.411   -15028.633    1030.0586    25064.765    16924.733    9.0485796    7.8362999    18.057852    14867.196   -2437.6319 
    6620    137.30278     1280.423    9.0485513    9.0485514    18.057795          120    21550.559     25837.19   -24556.924   -5901.8734     22603.84    12336.376    9.0485513    7.8362754    18.057795    7610.2747   -2437.6478 
    6630    135.56593    1280.4196    9.0485432    9.0485433    18.057779          120    18655.221    25997.927   -30779.351   -11446.082    22944.426    9583.7168    9.0485432    7.8362683    18.057779    4624.5988   -2437.6271 
    6640    135.84151    1280.4246    9.0485551    9.0485551    18.057803          120    30951.683    30682.245   -19483.294   -3992.4936    24076.751    15483.143    9.0485551    7.8362786    18.057803    14050.212   -2437.6434 
    6650    135.60788    1280.4394      9.04859      9.04859    18.057872          120    28609.371    31259.224   -18250.313   -2420.4691    23474.858    17030.612      9.04859    7.8363089    18.057872    13872.761   -2437.6545 
    6660    135.78346    1280.4642    9.0486484    9.0486485    18.057989          120    15880.467    28845.843   -29119.368   -10749.336    22831.454    11786.794    9.0486484    7.8363595    18.057989    5202.3139   -2437.6664 
    6670    137.02886    1280.4983    9.0487287    9.0487288    18.058149          120    24943.235     30946.19   -26967.282   -10392.464    22438.304    12249.612    9.0487287     7.836429    18.058149    9640.7143   -2437.6969 
    6680    137.03094    1280.5423    9.0488322    9.0488323    18.058356          120    35492.277     34304.77   -18818.848    -3641.463    23007.131    17292.872    9.0488322    7.8365186    18.058356    16992.733    -2437.711 
    6690    139.28084    1280.5971    9.0489613    9.0489614    18.058613          120    20859.502    32656.103   -23828.358   -5857.6614    24296.943    15718.062    9.0489613    7.8366304    18.058613     9895.749   -2437.7584 
    6700    139.68479     1280.662    9.0491143    9.0491143    18.058919          120    16696.811    30582.109   -30152.339   -11202.777     22788.12    11022.906    9.0491143    7.8367629    18.058919    5708.8606   -2437.7792 
    6710     141.6375    1280.7366      9.04929    9.0492901     18.05927          120    35713.901    33125.784   -24323.291   -7650.9438    21611.574    13246.169      9.04929    7.8369151     18.05927    14838.798   -2437.8109 
    6720    142.89124     1280.822    9.0494912    9.0494912    18.059671          120    32226.323     34340.91   -20605.795   -2573.7182    24777.083    16629.352    9.0494912    7.8370893    18.059671    15320.479   -2437.8276 
    6730    143.41205    1280.9183    9.0497178    9.0497179    18.060123          120    14936.772    30724.102   -27440.304   -5667.1519    25138.362    12386.122    9.0497178    7.8372856    18.060123    6073.5235   -2437.8331 
    6740    144.68648    1281.0243    9.0499676    9.0499676    18.060622          120    27563.689    29856.281   -28819.301   -8885.1765    21401.098    9015.5811    9.0499676    7.8375019    18.060622    9533.5563   -2437.8659 
    6750    144.00108    1281.1406    9.0502413    9.0502413    18.061168          120     40812.08    32781.279    -21498.22    -3763.998    23100.077      12969.1    9.0502413    7.8377389    18.061168    17365.046   -2437.8651 
    6760    144.52555    1281.2679     9.050541    9.0505411    18.061766          120    23709.941    30845.357   -22596.889   -145.66944    26878.787    13224.544     9.050541    7.8379985    18.061766    10652.803   -2437.9023 
    6770    143.46086    1281.4055     9.050865    9.0508651    18.062413          120    18608.308    27342.392    -28934.69   -4992.6027    23733.568    7573.5366     9.050865    7.8382791    18.062413    5672.0034   -2437.8896 
    6780    143.44712    1281.5528     9.051212     9.051212    18.063105          120    38317.814    29826.582   -24412.712   -6016.6949    21351.857    7656.3182     9.051212    7.8385796    18.063105    14577.228   -2437.8943 
    6790    143.18144    1281.7111    9.0515845    9.0515845    18.063848          120    36684.764    30709.114   -19413.646   -166.87028     25812.78    10876.242    9.0515845    7.8389022    18.063848    15993.411    -2437.905 
    6800     142.8627    1281.8803    9.0519829     9.051983    18.064644          120    19022.609    26521.325   -25615.804   -289.40754    27040.484    7823.5816    9.0519829    7.8392472    18.064644    6642.7101   -2437.9094 
    6810    144.24869    1282.0596    9.0524048    9.0524048    18.065485          120    27320.976    26794.658   -26739.934   -5120.2498    22777.183     4511.613    9.0524048    7.8396126    18.065485    9125.2334   -2437.9389 
    6820    143.72224     1282.249    9.0528507    9.0528508    18.066375          120    41774.405    29720.604   -19723.767   -3565.4109     23215.68    6342.6881    9.0528507    7.8399988    18.066375    17257.081   -2437.9402 
    6830    146.06564    1282.4496    9.0533226    9.0533226    18.067317          120    28948.646    27003.887   -22419.498   -114.40497    27680.702    6878.4794    9.0533226    7.8404074    18.067317    11177.678   -2437.9922 
    6840    145.56834    1282.6602    9.0538182    9.0538183    18.068306          120    18294.474    24375.621   -27925.336   -2415.0129    26951.829    4087.3443    9.0538182    7.8408366    18.068306    4914.9195    -2437.996 
    6850    146.86904      1282.88    9.0543353    9.0543354    18.069338          120    33669.223    27063.712   -22676.995   -5202.0194    23205.071    2974.3055    9.0543353    7.8412845    18.069338    12685.313   -2438.0379 
    6860    146.49147    1283.1093    9.0548748    9.0548749    18.070415          120    38002.793     27564.42   -21861.644   -3963.6367    25235.387    4000.5884    9.0548748    7.8417517    18.070415    14568.523   -2438.0424 
    6870    145.46769     1283.348    9.0554362    9.0554362    18.071535          120    18921.072    23903.769   -29118.401   -2237.8278    29999.903     3992.455    9.0554362    7.8422378    18.071535    4568.8132   -2438.0422 
    6880    144.71211    1283.5942    9.0560152    9.0560153    18.072691          120    18938.935     23804.72   -27706.129   -3782.8859    27638.372    2565.8726    9.0560152    7.8427393    18.072691    5012.5087   -2438.0366 
    6890    141.79459    1283.8473    9.0566105    9.0566106    18.073879          120    36265.529    26352.421   -24254.782   -6604.9265    23948.767    1574.3069    9.0566105    7.8432549    18.073879    12787.723   -2437.9924 
    6900    141.07638    1284.1075    9.0572222    9.0572222    18.075099          120    26574.156    24796.536   -30558.717   -5309.7653    29434.239    2240.3092    9.0572222    7.8437846    18.075099    6937.3249   -2437.9987 
    6910    137.56815    1284.3731    9.0578467    9.0578468    18.076346          120    9178.9263    21958.422   -34150.192   -2164.7937     33058.88    2970.0043    9.0578467    7.8443254    18.076346   -1004.2812   -2437.9499 
    6920    137.45868    1284.6425    9.0584798    9.0584799    18.077609          120    23301.345    23021.645    -29831.55   -4875.6749    26952.627     1659.615    9.0584798    7.8448737    18.077609    5497.1466   -2437.9597 
    6930      135.115    1284.9152    9.0591209     9.059121    18.078889          120    31530.873    23966.174   -31765.116    -7845.446    27345.967    135.82487    9.0591209    7.8454289    18.078889    7910.6437   -2437.9362 
    6940    134.91392    1285.1908    9.0597684    9.0597685    18.080181          120    10529.297    21172.142   -38749.968   -3078.5912    35172.457    1090.8656    9.0597684    7.8459897    18.080181   -2349.5098   -2437.9308 
    6950    134.29944    1285.4669    9.0604173    9.0604174    18.081476          120    8351.8866    19152.418   -37581.943   -965.97912     32500.22    2114.5489    9.0604173    7.8465516    18.081476   -3359.2128   -2437.9436 
    6960    133.06117    1285.7427    9.0610651    9.0610652    18.082768          120      27008.8    20595.668   -33709.469   -6074.0742    27133.754     394.6779    9.0610651    7.8471126    18.082768    4631.6661    -2437.932 
    6970    133.35271    1286.0181    9.0617119     9.061712    18.084059          120    18412.896    19902.173   -39066.304   -5405.3658    33138.074   -1324.1586    9.0617119    7.8476728    18.084059   -250.41161   -2437.9439 
    6980    131.28469    1286.2917    9.0623546    9.0623547    18.085342          120    2003.9668    16251.176   -43925.199    150.12476    36307.853    167.87059    9.0623546    7.8482294    18.085342   -8556.6855   -2437.9246 
    6990    131.43881    1286.5619    9.0629892    9.0629893    18.086608          120    15085.215    16308.704   -38280.948   -1460.3102    29825.934    1585.1512    9.0629892     7.848779    18.086608   -2295.6762   -2437.9245 
    7000    129.51137    1286.8288    9.0636159     9.063616    18.087859          120    23162.666    17939.206   -37190.536   -5206.6187    29836.743   -994.46627    9.0636159    7.8493217    18.087859    1303.7786   -2437.8995 
    7010    129.30445    1287.0922    9.0642342    9.0642343    18.089093          120    6697.3562    15139.311   -46101.595   -2548.6663    35644.331     -2563.43    9.0642342    7.8498572    18.089093   -8088.3091   -2437.8988 
    7020    127.88422    1287.3504    9.0648403    9.0648404    18.090303          120    4529.3926    12873.241   -45613.173    833.16807    33702.943    565.75275    9.0648403    7.8503821    18.090303   -9403.5133   -2437.8881 
    7030    126.85166    1287.6028    9.0654327    9.0654328    18.091485          120    19396.081     14727.52   -37477.901   -1285.9399    29024.283    1321.8684    9.0654327    7.8508951    18.091485   -1118.0999   -2437.9013 
    7040    126.02551    1287.8499    9.0660125    9.0660126    18.092642          120     15218.75    14401.419   -43536.187   -4407.1701    31293.366   -2641.0227    9.0660125    7.8513972    18.092642   -4638.6723   -2437.8875 
    7050    123.67275    1288.0907    9.0665776    9.0665776    18.093769          120    2321.9954    11492.879   -51844.198   -1840.1651    34765.226   -1999.3392    9.0665776    7.8518866    18.093769   -12676.441   -2437.8512 
    7060    122.84287    1288.3241    9.0671251    9.0671251    18.094862          120    10495.261    11450.906   -42675.575    1703.3938    31526.047    2397.1118    9.0671251    7.8523607    18.094862    -6909.803   -2437.8396 
    7070      120.132    1288.5503    9.0676558    9.0676558    18.095921          120    19394.818    12535.243   -38969.522   -1999.7429    27598.219    468.81522    9.0676558    7.8528203    18.095921   -2346.4868   -2437.8068 
    7080    118.61316    1288.7696    9.0681701    9.0681701    18.096948          120    7771.5898     11341.24   -51344.433   -5405.2303     31107.51   -3030.1872    9.0681701    7.8532657    18.096948   -10743.868   -2437.7757 
    7090    116.76109    1288.9807    9.0686653    9.0686654    18.097936          120    3036.9587    9843.8256   -50705.095   -231.20621     33874.18     1014.384    9.0686653    7.8536946    18.097936   -12608.104   -2437.7537 
    7100    114.84223    1289.1834    9.0691405    9.0691405    18.098884          120    16217.996    10316.779   -38950.342    1962.2068    28008.127    4265.3933    9.0691405    7.8541061    18.098884   -4138.5225   -2437.7293 
    7110    114.29019    1289.3782    9.0695973    9.0695974    18.099796          120    14917.649    10937.507   -45007.782   -4500.2098     26179.61   -156.45755    9.0695973    7.8545017    18.099796   -6384.2089   -2437.7189 
    7120    112.71782    1289.5648    9.0700348    9.0700348    18.100669          120    1154.6663    10117.835   -54749.676   -4366.8803    32666.803    -1039.929    9.0700348    7.8548806    18.100669   -14492.392   -2437.7043 
    7130    113.09956     1289.742    9.0704503    9.0704504    18.101498          120    7928.9386    9614.8962   -45648.527    2652.8032    31252.967    5314.2164    9.0704503    7.8552405    18.101498   -9368.2308   -2437.7238 
    7140    112.11818    1289.9104    9.0708449     9.070845    18.102286          120    18210.024    10562.894   -40538.604    219.13956      25067.1    5598.5519    9.0708449    7.8555822    18.102286   -3921.8953    -2437.708 
    7150    112.62723    1290.0703    9.0712198    9.0712198    18.103034          120    5345.5725    10829.247   -51252.686    -5325.105    29224.549    134.18291    9.0712198    7.8559069    18.103034   -11692.622   -2437.7237 
    7160    112.26272    1290.2208    9.0715726    9.0715727    18.103738          120   -239.05553    10373.134    -52732.51   -355.37898    33457.606    2893.4725    9.0715726    7.8562124    18.103738   -14199.477   -2437.7242 
    7170    111.94903    1290.3616    9.0719024    9.0719025    18.104396          120    15089.216    11053.735   -42944.755    3510.2851    28136.574    9329.1012    9.0719024     7.856498    18.104396   -5600.6012   -2437.7325 
    7180    112.72825    1290.4935    9.0722116    9.0722117    18.105013          120    12865.238    11866.512   -44947.763   -1574.3605    27483.491     6094.706    9.0722116    7.8567658    18.105013   -6738.6708   -2437.7359 
    7190    111.62638    1290.6166    9.0725001    9.0725001    18.105589          120   -2122.4043    11311.328   -53614.287   -2820.2526    33012.955    1574.3097    9.0725001    7.8570156    18.105589   -14808.454   -2437.7215 
    7200     113.4689      1290.73    9.0727657    9.0727658    18.106119          120    7509.1782    11908.012   -49199.424    2177.8597     31893.01    7530.9826    9.0727657    7.8572457    18.106119   -9927.4113    -2437.752 
    7210    112.89255    1290.8343    9.0730102    9.0730103    18.106607          120    17933.839    13541.696   -42471.724    2819.6118    28765.606    11884.376    9.0730102    7.8574574    18.106607   -3665.3964   -2437.7611 
    7220    114.77018    1290.9306    9.0732357    9.0732358    18.107057          120    4270.5148    12909.874   -49134.754   -1323.4665      31480.6    5386.4692    9.0732357    7.8576527    18.107057   -10651.455   -2437.7995 
    7230    114.97531    1291.0181    9.0734408    9.0734408    18.107466          120    1484.7016    12240.318   -53976.519   -1467.0474    33340.115    3429.1349    9.0734408    7.8578303    18.107466   -13417.167   -2437.8142 
    7240    115.74497    1291.0968    9.0736252    9.0736253    18.107834          120    16968.871    14799.715   -45338.794    2923.6366    31338.413    11435.211    9.0736252      7.85799    18.107834   -4523.4027   -2437.8344 
    7250    116.17559    1291.1681    9.0737922    9.0737922    18.108167          120    14038.263    15415.598    -43584.38    2534.5526    30950.889    11138.671    9.0737922    7.8581346    18.108167   -4710.1732   -2437.8491 
    7260    115.26862    1291.2322    9.0739424    9.0739425    18.108467          120    2358.4994    13290.626   -53239.861    -2641.145    32582.992    2860.1886    9.0739424    7.8582647    18.108467   -12530.245   -2437.8314 
    7270    115.90578    1291.2887    9.0740746    9.0740747    18.108731          120    11972.207     14672.75   -50685.272   -1322.9883    33015.917    5496.2545    9.0740746    7.8583792    18.108731   -8013.4385   -2437.8564 
    7280    114.01312    1291.3383    9.0741909     9.074191    18.108963          120    20962.876    16845.537   -41032.425    3345.9433    31695.226    12279.822    9.0741909      7.85848    18.108963   -1074.6707   -2437.8125 
    7290    115.12487    1291.3824    9.0742942    9.0742942    18.109169          120    10209.628    14701.509   -47130.385   -356.79995    31080.814    6705.8298    9.0742942    7.8585694    18.109169   -7406.4159    -2437.833 
    7300    113.94018    1291.4205    9.0743834    9.0743834    18.109347          120    7674.7035    13838.354   -53594.746   -4742.2091    32565.796    1033.3478    9.0743834    7.8586466    18.109347   -10693.896   -2437.8133 
    7310    115.32862    1291.4526    9.0744585    9.0744586    18.109497          120    21263.771    16175.955   -43642.876   -557.04559    32612.862    7216.9841    9.0744585    7.8587117    18.109497   -2067.7167   -2437.8362 
    7320    116.26611    1291.4799    9.0745224    9.0745225    18.109625          120    20360.058    15484.286   -40899.285    1332.2044    30203.156    9789.0113    9.0745224     7.858767    18.109625   -1684.9802   -2437.8773 
    7330    117.58526    1291.5026    9.0745756    9.0745757    18.109731          120    8358.3326    13141.006   -50867.422   -3860.4384    30820.111    2349.6931    9.0745756    7.8588131    18.109731   -9789.3609   -2437.8997 
    7340    120.04755    1291.5201    9.0746165    9.0746166    18.109813          120    15281.329      14283.6   -48560.686   -4868.8983    32408.577    1314.6357    9.0746165    7.8588485    18.109813   -6331.9189   -2437.9526 
    7350    121.01862    1291.5328    9.0746464    9.0746465    18.109872          120    26688.075    15485.241   -39696.798   -1060.0586     29888.04    8027.7982    9.0746464    7.8588744    18.109872    825.50593   -2437.9754 
    7360    123.25593    1291.5418    9.0746675    9.0746675    18.109914          120    15945.861    13195.805   -44640.517   -1418.2855    29192.527    6500.5839    9.0746675    7.8588926    18.109914   -5166.2838    -2438.021 
    7370    123.00753    1291.5465    9.0746785    9.0746786    18.109936          120    8987.9441    12293.865   -49690.811   -4798.3483    31277.244    157.51943    9.0746785    7.8589022    18.109936   -9469.6675   -2438.0111 
    7380    123.50386    1291.5467    9.0746788    9.0746789    18.109937          120    24402.456    14524.915   -42416.713   -5099.9389    29496.689    3356.3997    9.0746788    7.8589025    18.109937   -1163.1141    -2438.025 
    7390    121.84241    1291.5433    9.0746709     9.074671    18.109921          120    26053.683    14074.318   -39613.441   -2121.7411    28127.927      8328.01    9.0746709    7.8588956    18.109921    171.52034   -2437.9995 
    7400    119.97395    1291.5367    9.0746556    9.0746557     18.10989          120    9729.0446    11087.279   -45623.938   -1609.0437     30161.13    3992.0946    9.0746556    7.8588824     18.10989   -8269.2048   -2437.9746 
    7410    118.07698    1291.5263    9.0746311    9.0746311    18.109841          120    15557.197    11946.163   -44399.029   -5995.5427    28792.337    1153.5817    9.0746311    7.8588611    18.109841   -5631.8895   -2437.9572 
    7420    115.15463    1291.5122    9.0745981    9.0745982    18.109776          120    30324.651     14052.41   -37933.437   -6510.4896    26784.626    6565.4872    9.0745981    7.8588326    18.109776    2147.8746   -2437.9167 
    7430    114.20545    1291.4956    9.0745594    9.0745594    18.109698          120    18334.663    11133.797   -39819.088   -1054.9906     28778.97    8344.7173    9.0745594     7.858799    18.109698   -3450.2094   -2437.9152 
    7440    112.38151     1291.476    9.0745134    9.0745135    18.109607          120    8779.9946    8797.5141   -43592.295   -2899.4858    27874.649    3762.2318    9.0745134    7.8587592    18.109607   -8671.5955   -2437.8858 
    7450      112.371    1291.4528     9.074459     9.074459    18.109498          120    25115.038    11524.206   -38590.179   -9695.6167    24616.905    4264.9622     9.074459    7.8587121    18.109498   -650.31175   -2437.8862 
    7460    112.52435    1291.4269    9.0743983    9.0743984    18.109377          120    27295.708    11467.743   -34963.808   -5769.5903    26169.744    9162.0748    9.0743983    7.8586596    18.109377    1266.5477    -2437.907 
    7470    112.86366    1291.3986     9.074332    9.0743321    18.109245          120    10161.711    7216.9581   -40041.487   -886.83152    26649.929    8309.6488     9.074332    7.8586021    18.109245   -7554.2727   -2437.9212 
    7480    114.28795    1291.3668    9.0742575    9.0742576    18.109096          120    15044.822    7207.4289   -39788.467   -7830.7459    22761.629    4820.5218    9.0742575    7.8585376    18.109096   -5845.4055   -2437.9454 
    7490    114.49814    1291.3317    9.0741753    9.0741753    18.108932          120    28968.467    9798.6051   -32468.605   -11040.165    22907.562    6940.8332    9.0741753    7.8584664    18.108932    2099.4892    -2437.954 
    7500    116.25022    1291.2941    9.0740873    9.0740874    18.108756          120    17976.987    7363.3962   -34578.588   -4178.2837    24975.167     10223.31    9.0740873    7.8583902    18.108756   -3079.4013   -2438.0031 
    7510    115.81504    1291.2534     9.073992     9.073992    18.108566          120    8170.8339    4055.4709   -39771.959   -3992.3873    22525.616    8275.7519     9.073992    7.8583076    18.108566   -9181.8848    -2438.012 
    7520    116.85208    1291.2087    9.0738873    9.0738874    18.108357          120    21648.169    5919.7093   -33061.717   -10789.871    20921.332    5913.2258    9.0738873     7.858217    18.108357   -1831.2794    -2438.036 
    7530    116.19711    1291.1608    9.0737751    9.0737751    18.108133          120    25193.451     7023.249   -29844.473   -9678.1178    22846.537    8505.9304    9.0737751    7.8581198    18.108133    790.74232   -2438.0261 
    7540    115.66603    1291.1098    9.0736555    9.0736555    18.107895          120    9948.5855    3280.3571   -37611.204   -3876.2397    23131.562    10919.981    9.0736555    7.8580162    18.107895   -8127.4204   -2438.0483 
    7550    115.79161    1291.0543    9.0735256    9.0735257    18.107635          120    10934.055    2323.7158   -36178.423   -5975.5473    21498.021    8618.8913    9.0735256    7.8579038    18.107635   -7640.2177   -2438.0546 
    7560    114.37538    1290.9944    9.0733852    9.0733853    18.107355          120    24807.734    5280.1123   -29217.573   -11346.821    21161.667    7380.4081    9.0733852    7.8577822    18.107355    290.09119   -2438.0407 
    7570    115.60954    1290.9306    9.0732357    9.0732357    18.107057          120    18235.043    4223.1217   -35015.843   -7992.3447    22806.309    10365.811    9.0732357    7.8576527    18.107057   -4185.8928   -2438.0777 
    7580    114.72135     1290.862    9.0730751    9.0730751    18.106736          120    5974.5025    1120.7874   -40558.962   -2542.7747    23695.838    11660.841    9.0730751    7.8575136    18.106736   -11154.557   -2438.0577 
    7590     116.6674    1290.7877    9.0729009    9.0729009    18.106389          120    16468.018    3217.6363   -33955.926   -7325.0252    21581.676    9896.3933    9.0729009    7.8573627    18.106389   -4756.7574   -2438.1043 
    7600    117.01156    1290.7079    9.0727139     9.072714    18.106015          120    24116.009    5428.7811    -33952.93   -11760.849    21220.146    9629.2878    9.0727139    7.8572008    18.106015   -1469.3799   -2438.1196 
    7610    118.93336    1290.6226    9.0725142    9.0725143    18.105617          120    10163.462    2320.0045   -43213.029   -4454.7519     24944.95    11554.551    9.0725142    7.8570279    18.105617   -10243.187   -2438.1603 
    7620    120.27748    1290.5307    9.0722987    9.0722988    18.105187          120    7503.3097    1525.8264   -41972.631   -1675.6143    24223.524    13005.593    9.0722987    7.8568413    18.105187   -10981.165   -2438.1908 
    7630    121.20913    1290.4315    9.0720663    9.0720664    18.104723          120    21785.953    5538.0815   -36026.998   -10652.158    20325.022    12117.188    9.0720663      7.85664    18.104723   -2900.9878   -2438.2208 
    7640    123.01364    1290.3258    9.0718185    9.0718186    18.104229          120    18117.216     4981.885   -42091.455   -9645.9916    23551.532    10703.809    9.0718185    7.8564254    18.104229   -6330.7848   -2438.2529 
    7650    122.33018    1290.2129     9.071554     9.071554    18.103701          120    5441.2829    1496.7152   -48062.131   -37.097929    26427.359    12819.725     9.071554    7.8561963    18.103701   -13708.044   -2438.2552 
    7660    123.73394    1290.0918    9.0712702    9.0712703    18.103134          120    14260.874    4395.8642   -41454.544   -4745.9377    21201.228    15417.034    9.0712702    7.8559506    18.103134   -7599.2683   -2438.2879 
    7670    122.31261    1289.9632    9.0709688    9.0709689    18.102533          120    22688.762     7286.635   -39100.122   -11874.381    20719.544    12592.534    9.0709688    7.8556895    18.102533   -3041.5749   -2438.2605 
    7680    122.53533    1289.8277    9.0706512    9.0706512    18.101899          120    10867.138    4075.8711   -47637.114   -3743.5084     25984.69    10845.058    9.0706512    7.8554144    18.101899   -10898.035   -2438.2538 
    7690    121.59051    1289.6845    9.0703154    9.0703154    18.101229          120    8129.7714    3650.7106   -47491.312    464.15518    23190.121    15335.623    9.0703154    7.8551236    18.101229    -11903.61   -2438.2595 
    7700    120.91044    1289.5335    9.0699615    9.0699615    18.100523          120    21214.227    7403.4102   -38112.954   -7637.6314     18881.99    15733.915    9.0699615    7.8548171    18.100523   -3165.1056   -2438.2562 
    7710    120.61197    1289.3761    9.0695925    9.0695925    18.099786          120    18509.378    6948.9362   -41239.454   -7454.8029    22812.398    10457.833    9.0695925    7.8544976    18.099786   -5260.3798   -2438.2494 
    7720    119.32938    1289.2123    9.0692084    9.0692084     18.09902          120    7492.7414     4668.828   -49194.397    547.60807     24432.58     11909.89    9.0692084    7.8541649     18.09902   -12344.276   -2438.2373 
    7730    119.15737    1289.0415    9.0688079     9.068808     18.09822          120    15045.323    6551.6406   -40836.156   -956.86541    19556.821    16412.466    9.0688079    7.8538181     18.09822    -6413.064   -2438.2372 
    7740    117.24884    1288.8649    9.0683935    9.0683936    18.097393          120    22493.877     8232.218   -33798.331    -6079.426     19498.29    12461.545    9.0683935    7.8534592    18.097393   -1024.0787   -2438.2131 
    7750    116.54099    1288.6832    9.0679674    9.0679675    18.096543          120    12655.654    6390.8275   -43537.236   -2674.3168    23229.182     8745.939    9.0679674    7.8530902    18.096543   -8163.5849   -2438.2111 
    7760    114.66612     1288.496    9.0675284    9.0675285    18.095667          120     9392.214    6378.5936   -44460.288    1669.9188    21841.675    13196.052    9.0675284      7.85271    18.095667   -9563.1603   -2438.1877 
    7770    113.27037    1288.3036    9.0670771    9.0670771    18.094766          120    19517.687    9274.9074   -31515.722   -1246.5323    18676.403    14829.465    9.0670771    7.8523192    18.094766   -907.70901   -2438.1718 
    7780    112.49331    1288.1073    9.0666165    9.0666166    18.093847          120    18891.695    8833.1795   -34072.705   -3928.9272    20097.043    9377.6853    9.0666165    7.8519203    18.093847   -2115.9434   -2438.1695 
    7790    110.89747    1287.9073    9.0661471    9.0661472    18.092911          120    9617.3734    6951.7192   -44247.421   -267.27439    22625.195    8363.8364    9.0661471    7.8515138    18.092911   -9226.1095   -2438.1509 
    7800    111.07712    1287.7031    9.0656679     9.065668    18.091954          120     13090.62    10326.732   -35855.851    1772.4035    20426.847    13779.371    9.0656679    7.8510988    18.091954   -4146.1661   -2438.1695 
    7810    109.94725    1287.4955    9.0651809     9.065181    18.090982          120    20443.404    12855.988   -28067.281    -2209.826    17574.601    13554.807    9.0651809     7.850677    18.090982    1744.0373   -2438.1512 
    7820    109.84481    1287.2857    9.0646884    9.0646884    18.089999          120    14472.127    9240.2856   -38249.934   -2868.5126    20377.451    7293.7094    9.0646884    7.8502505    18.089999   -4845.8407   -2438.1657 
    7830    109.15889    1287.0731    9.0641893    9.0641894    18.089003          120    9777.6182    10056.199   -41067.253    996.83482    22351.442     8807.469    9.0641893    7.8498183    18.089003   -7077.8119   -2438.1606 
    7840    108.32884    1286.8578     9.063684     9.063684    18.087995          120    17233.357    16078.912   -29261.192   -549.25665    17539.963    15646.544     9.063684    7.8493806    18.087995     1350.359   -2438.1458 
    7850    108.14809    1286.6411    9.0631752    9.0631752    18.086979          120    18519.079    14128.342   -29777.993   -3906.7801    16918.768    11752.047    9.0631752      7.84894    18.086979    956.47584   -2438.1604 
    7860    106.97456    1286.4233    9.0626636    9.0626636    18.085958          120    10855.763    9804.8603   -40045.824   -1537.7035     22176.07    5194.4644    9.0626636     7.848497    18.085958   -6461.7337   -2438.1529 
    7870    107.99546    1286.2037    9.0621479     9.062148    18.084929          120    13025.617    15216.498   -34540.314   -888.57049    19818.588    11434.601    9.0621479    7.8480504    18.084929   -2099.3995   -2438.1772 
    7880    107.40943    1285.9831    9.0616298    9.0616299    18.083895          120    18976.177    18650.331   -25042.406   -4231.0514    15115.248    15830.852    9.0616298    7.8476017    18.083895    4194.7005   -2438.1865 
    7890    109.41753    1285.7625    9.0611117    9.0611117    18.082861          120    13519.075    12410.467   -32255.859   -3608.2604    19875.411    6999.4689    9.0611117     7.847153    18.082861   -2108.7723   -2438.2331 
    7900    110.13346    1285.5414    9.0605922    9.0605923    18.081825          120    9791.2433    11985.886    -37289.02   -2441.0037     22266.64    4859.0199    9.0605922    7.8467031    18.081825   -5170.6302   -2438.2518 
    7910    111.59978    1285.3196     9.060071    9.0600711    18.080785          120    16523.858    18594.686   -25874.588   -5068.3702    16397.399    13349.134     9.060071    7.8462517    18.080785    3081.3184   -2438.2725 
    7920    112.91589    1285.0982    9.0595509    9.0595509    18.079747          120    15929.282    16388.987   -22707.703   -4951.6214    17055.768    10992.429    9.0595509    7.8458013    18.079747    3203.5221   -2438.3019 
    7930    112.35341    1284.8775    9.0590323    9.0590323    18.078712          120    8376.6989    10613.001   -32622.546   -3602.8938    22094.797    2460.4433    9.0590323    7.8453522    18.078712    -4544.282   -2438.3063 
    7940     112.7863    1284.6568    9.0585135    9.0585136    18.077676          120    12249.563    14493.778   -29019.928   -6250.5198    19308.099    6119.2942    9.0585135    7.8449029    18.077676   -758.86247   -2438.3221 
    7950    110.30346    1284.4366     9.057996    9.0579961    18.076644          120    17135.555     17976.28   -17431.777     -6470.55    16415.669     11057.24     9.057996    7.8444548    18.076644    5893.3527   -2438.3009 
    7960    109.60812    1284.2181    9.0574822    9.0574823    18.075618          120    9943.1953    12503.973   -22460.707   -4022.0548      19719.1    4816.2319    9.0574822    7.8440098    18.075618   -4.5130256   -2438.2913 
    7970     106.9146    1284.0006     9.056971    9.0569711    18.074598          120    7958.0876    10556.045   -29264.437   -6235.1109     20660.24    703.07014     9.056971     7.843567    18.074598   -3583.4346   -2438.2558 
    7980    106.47113    1283.7841    9.0564618    9.0564619    18.073582          120    16143.965    16202.516   -18851.175   -8250.9904    18414.836    5890.9103    9.0564618    7.8431261    18.073582    4498.4354   -2438.2556 
    7990    105.78366    1283.5696    9.0559574    9.0559575    18.072575          120    14046.009    15899.827   -14372.975   -4936.1925    18532.513    7330.0873    9.0559574    7.8426893    18.072575    5190.9538   -2438.2504 
    8000    106.32958    1283.3573    9.0554582    9.0554583    18.071579          120    6573.4758    10415.127   -25114.565   -4617.8505    20029.093    950.52078    9.0554582    7.8422569    18.071579   -2708.6539   -2438.2726 
    8010    108.41705    1283.1466    9.0549624    9.0549625     18.07059          120    12305.955    12893.483     -24377.6   -8407.8771    20554.485   -105.15921    9.0549624    7.8418276     18.07059     273.9461   -2438.3202 
    8020    109.41388    1282.9377    9.0544711    9.0544711    18.069609          120    17726.978    18052.755   -14196.649   -7261.7738    19940.231    6211.5603    9.0544711     7.841402    18.069609    7194.3613   -2438.3384 
    8030    112.32055    1282.7316    9.0539862    9.0539862    18.068641          120    9969.6149    14448.769    -19504.73   -3936.0266    19585.435    5168.3762    9.0539862    7.8409821    18.068641    1637.8846   -2438.3941 
    8040    112.95021    1282.5277    9.0535065    9.0535065    18.067684          120    8207.4673    11333.707   -27661.614    -6176.398    21245.222   -1422.6985    9.0535065    7.8405667    18.067684   -2706.8132   -2438.4237 
    8050    114.66886    1282.3257    9.0530312    9.0530312    18.066736          120    17979.752    17569.783   -20300.519   -9296.6468    21868.296    2384.3983    9.0530312     7.840155    18.066736    5083.0055   -2438.4604 
    8060    114.86673    1282.1266    9.0525626    9.0525626      18.0658          120    16848.057    20007.934   -16993.545   -6665.0162    20197.512    8510.1311    9.0525626    7.8397492      18.0658    6620.8154   -2438.4738 
    8070    115.23393    1281.9308    9.0521016    9.0521017     18.06488          120    8108.8733    14257.789    -26088.48   -4095.6171    21436.856    3168.7328    9.0521016      7.83935     18.06488   -1240.6057   -2438.5016 
    8080    115.73043    1281.7375    9.0516468    9.0516468    18.063973          120    14201.171    15712.351   -26342.099   -8205.1197    23284.015    241.98835    9.0516468    7.8389561    18.063973    1190.4744   -2438.5119 
    8090    115.77441    1281.5474    9.0511992    9.0511993     18.06308          120     22724.83    22699.695   -18933.633   -10833.633    21151.207    7703.7511    9.0511992    7.8385685     18.06308    8830.2972   -2438.5266 
    8100    117.00287    1281.3616    9.0507617    9.0507618    18.062206          120    14617.912     20330.85   -22607.329   -5516.1259    21553.864    8632.7855    9.0507617    7.8381896    18.062206    4113.8109   -2438.5556 
    8110    117.07219    1281.1798    9.0503337    9.0503338    18.061352          120    10332.941    15962.855   -28426.169   -4628.2667    24356.022    2431.8441    9.0503337     7.837819    18.061352   -710.12434   -2438.5642 
    8120    118.30261    1281.0019    9.0499148    9.0499149    18.060516          120    22768.265    20911.703   -22376.505   -11816.315    22300.161     4807.521    9.0499148    7.8374562    18.060516    7101.1545   -2438.5831 
    8130    118.21688    1280.8291    9.0495077    9.0495078    18.059704          120    24226.234    24125.774   -19311.128   -10300.896    21536.661    10170.087    9.0495077    7.8371036    18.059704    9680.2933   -2438.5971 
    8140    117.78071    1280.6619    9.0491141    9.0491142    18.058918          120    11945.712    19412.775   -25901.469   -3510.2386    25015.477    7281.8707    9.0491141    7.8367628    18.058918    1819.0059   -2438.6062 
    8150    117.29949       1280.5    9.0487326    9.0487327    18.058157          120    17028.075    18246.642   -24434.925   -8677.6796    23971.463    4606.9578    9.0487326    7.8364324    18.058157    3613.2639   -2438.6145 
    8160    115.07198    1280.3437    9.0483646    9.0483647    18.057423          120    29432.515    22939.008   -16790.356   -14356.915     22172.06    8370.6859    9.0483646    7.8361137    18.057423    11860.389   -2438.5858 
    8170    114.03206    1280.1946    9.0480132    9.0480133    18.056721          120    20248.589    22691.976   -19784.662   -7610.8982    25395.432    10401.929    9.0480132    7.8358094    18.056721    7718.6343   -2438.5897 
    8180    111.55729    1280.0524    9.0476782    9.0476782    18.056053          120    12009.529    18598.418   -23730.231   -5610.3328    25788.201    7878.4441    9.0476782    7.8355192    18.056053    2292.5719   -2438.5626 
    8190    110.49885    1279.9168    9.0473588    9.0473588    18.055415          120    25717.484    20021.715    -16437.55   -13891.417    23706.651    7559.6012    9.0473588    7.8352426    18.055415    9767.2166   -2438.5645 
    8200    109.11619    1279.7891    9.0470578    9.0470579    18.054815          120    29447.879     23143.89   -13583.489   -13384.082     26017.72    10329.238    9.0470578     7.834982    18.054815     13002.76   -2438.5518 
    8210    108.33377    1279.6699    9.0467768    9.0467769    18.054254          120    14830.657    20698.043   -20214.218   -6559.5414    27403.811    10772.351    9.0467768    7.8347386    18.054254    5104.8271    -2438.553 
    8220    108.23144    1279.5584    9.0465143    9.0465144     18.05373          120    17315.924    18941.401   -18228.736   -9926.2723    25692.968    9038.9366    9.0465143    7.8345113     18.05373    6009.5299   -2438.5725 
    8230    107.16597    1279.4553    9.0462711    9.0462712    18.053245          120     31737.01    21916.025   -10887.807   -15326.468    26702.449    9542.8819    9.0462711    7.8343007    18.053245    14255.076   -2438.5637 
    8240    107.68043    1279.3615      9.04605    9.0460501    18.052804          120     24569.74    22363.219   -14649.193   -10837.538    28241.632    11251.519      9.04605    7.8341092    18.052804    10761.255   -2438.5813 
    8250    105.81801    1279.2769    9.0458507    9.0458508    18.052406          120    13654.685    19927.687   -19009.144   -7118.0387    27682.206    10684.902    9.0458507    7.8339366    18.052406    4857.7428   -2438.5517 
    8260    105.99274    1279.2013    9.0456724    9.0456725     18.05205          120    25725.536    21539.231   -11986.768   -11984.762    27782.841    10124.207    9.0456724    7.8337822     18.05205    11759.333   -2438.5514 
    8270    104.21971    1279.1356    9.0455178    9.0455178    18.051741          120    32878.622    24057.702   -9785.5945   -14397.174    28199.537    11098.853    9.0455178    7.8336483    18.051741     15716.91   -2438.5488 
    8280    103.49977    1279.0808    9.0453885    9.0453885    18.051483          120    19392.644    22583.884   -16936.347   -8874.0084    29024.489    11108.715    9.0453885    7.8335363    18.051483     8346.727   -2438.5452 
    8290    102.78584    1279.0363    9.0452835    9.0452836    18.051274          120    17936.755    22572.169   -15036.945   -7329.2524    29730.894    11007.122    9.0452835    7.8334454    18.051274    8490.6597   -2438.5417 
    8300    101.70814    1279.0025    9.0452039     9.045204    18.051115          120    32398.799    25959.029   -7529.0514   -13665.848    28121.549    11734.066    9.0452039    7.8333764    18.051115    16942.925   -2438.5298 
    8310    102.25073    1278.9808    9.0451526    9.0451527    18.051013          120    29438.131    26406.157   -12296.662   -13469.877    28637.454    11056.935    9.0451526    7.8333321    18.051013    14515.875   -2438.5481 
    8320    101.48164    1278.9712    9.0451301    9.0451302    18.050968          120    16917.529    24993.522    -17216.02   -6711.2664    31745.443    10720.516    9.0451301    7.8333125    18.050968    8231.6772   -2438.5382 
    8330    102.99597    1278.9735    9.0451355    9.0451356    18.050979          120    24673.187     27033.97   -8516.3009   -9513.4356    29511.783    12478.432    9.0451355    7.8333172    18.050979    14396.952   -2438.5716 
    8340    102.71981    1278.9886    9.0451712    9.0451713     18.05105          120    34531.232    28881.971   -6093.3834   -15901.709    27071.388    11694.228    9.0451712    7.8333481     18.05105    19106.607   -2438.5745 
    8350    104.25242    1279.0174    9.0452391    9.0452392    18.051185          120     23599.57    27430.671   -15159.993   -11007.804    31672.034    9569.5387    9.0452391    7.8334069    18.051185    11956.749   -2438.6167 
    8360    104.40158    1279.0594    9.0453381    9.0453381    18.051383          120    17846.647    27461.715   -12131.889    -6906.127    31931.336     11673.32    9.0453381    7.8334926    18.051383    11058.824   -2438.6218 
    8370    104.72463    1279.1146    9.0454683    9.0454683    18.051643          120    30496.833    29612.114   -2246.9074   -13816.699    26628.155    13045.756    9.0454683    7.8336054    18.051643    19287.347    -2438.639 
    8380    105.16541    1279.1843    9.0456324    9.0456325     18.05197          120    31070.162    29107.535   -8000.1995    -15720.91    29272.583    9348.1915    9.0456324    7.8337475     18.05197    17392.499   -2438.6552 
    8390    104.23092    1279.2683    9.0458304    9.0458305    18.052365          120    18304.286    27713.517    -14529.93   -9304.8308    32964.529    8892.2875    9.0458304     7.833919    18.052365    10495.958   -2438.6421 
    8400    104.70856     1279.366    9.0460606    9.0460607    18.052825          120    22151.564    29703.358   -4737.4283   -10649.733    27982.076    13103.119    9.0460606    7.8341184    18.052825    15705.831   -2438.6486 
    8410     103.7785     1279.478    9.0463247    9.0463248    18.053352          120    32157.146    30755.836   -1244.4225   -16448.397    26899.679    11494.216    9.0463247    7.8343471    18.053352    20556.186   -2438.6456 
    8420    104.10005     1279.605    9.0466239     9.046624    18.053949          120    24090.706    28229.792   -12151.994   -14120.891    31162.408    6822.7707    9.0466239    7.8346062    18.053949    13389.501   -2438.6612 
    8430    103.65095    1279.7459    9.0469561    9.0469561    18.054612          120    16937.813    28701.371   -11714.244   -10631.514    29139.046    9851.2395    9.0469561    7.8348939    18.054612    11308.313   -2438.6694 
    8440    103.51622    1279.9005    9.0473202    9.0473203    18.055338          120    26234.244    32021.285   -1660.8511   -13706.456    26110.947    13695.139    9.0473202    7.8352092    18.055338    18864.893   -2438.6756 
    8450    103.20352    1280.0692    9.0477179     9.047718    18.056132          120    28296.545    30028.569   -7040.0192   -16126.598    28125.907    8813.0465    9.0477179    7.8355536    18.056132    17095.032   -2438.6815 
    8460    102.10536    1280.2517    9.0481478    9.0481479     18.05699          120     18005.26    27112.588   -16553.745   -13460.547    28571.857    5990.7155    9.0481478     7.835926     18.05699    9521.3679   -2438.6796 
    8470    101.82168    1280.4467    9.0486072    9.0486073    18.057907          120    19130.173    30743.967   -9403.5615   -11481.666    26566.938    11749.771    9.0486072    7.8363238    18.057907    13490.193   -2438.6796 
    8480    100.30633    1280.6544    9.0490963    9.0490964    18.058883          120    26773.891    32258.787    -4510.495   -13737.773    26285.996    12513.036    9.0490963    7.8367474    18.058883    18174.061   -2438.6589 
    8490    100.05239    1280.8747    9.0496152    9.0496153    18.059919          120    21768.396    27298.109   -15806.327   -14939.745    26930.699     5810.063    9.0496152    7.8371968    18.059919    11086.726   -2438.6653 
    8500    99.144086    1281.1065     9.050161     9.050161    18.061008          120    16172.316     27162.89   -19248.608    -11595.05    27202.916    6413.2349     9.050161    7.8376694    18.061008    8028.8659   -2438.6616 
    8510     98.42845    1281.3488    9.0507316    9.0507317    18.062146          120    21462.597    31642.834   -8579.5271    -10254.66    26304.778    12478.519    9.0507316    7.8381636    18.062146    14841.968   -2438.6599 
    8520    98.294172    1281.6019    9.0513276    9.0513277    18.063336          120    23010.138    29020.283   -11558.862   -12936.927    25478.026    9225.7876    9.0513276    7.8386797    18.063336     13490.52    -2438.668 
    8530    96.748212    1281.8652    9.0519473    9.0519473    18.064572          120    17047.305    24315.854   -24323.011   -11924.866    27198.936     2950.536    9.0519473    7.8392164    18.064572    5680.0494   -2438.6513 
    8540    96.432977    1282.1371    9.0525873    9.0525874     18.06585          120    16886.685    27501.313   -18522.403   -8537.0624    27585.725    7564.0168    9.0525873    7.8397706     18.06585    8621.8651   -2438.6629 
    8550     94.46664    1282.4175     9.053247    9.0532471    18.067166          120    20390.951     29402.58   -9517.3317   -9488.2456    25025.151    11814.779     9.053247     7.840342    18.067166      13425.4   -2438.6464 
    8560    93.717659    1282.7061    9.0539263    9.0539263    18.068522          120    17865.545    23508.339   -21051.953    -10420.31    26346.098    4621.0703    9.0539263    7.8409302    18.068522    6773.9769   -2438.6425 
    8570    92.060019    1283.0018    9.0546219     9.054622     18.06991          120    14635.254    21870.687   -27633.635    -7869.224    28844.759    2032.1007    9.0546219    7.8415327     18.06991    2957.4354   -2438.6125 
    8580    91.313721    1283.3034    9.0553314    9.0553315    18.071326          120    16620.147    26468.573   -14869.675   -7104.2293    25954.683    9988.4905    9.0553314    7.8421471    18.071326    9406.3485   -2438.6025 
    8590    91.068682    1283.6111     9.056055    9.0560551     18.07277          120    16882.323    23898.078    -14858.97   -7733.6412    25358.082    8819.6364     9.056055    7.8427738     18.07277    8640.4769   -2438.5954 
    8600     90.49393    1283.9241     9.056791    9.0567911    18.074239          120    13127.629    17457.955   -29091.292   -6519.6842    28931.699    491.12231     9.056791    7.8434112    18.074239    498.09724   -2438.5915 
    8610    91.869913    1284.2407    9.0575355    9.0575356    18.075725          120    13346.664    19969.345    -25392.24   -6053.7695    27381.484    4594.2712    9.0575355    7.8440559    18.075725    2641.2562   -2438.6298 
    8620    91.593533    1284.5605    9.0582872    9.0582873    18.077225          120    15225.073      22946.3   -15066.696   -5818.4625    25212.762    10949.409    9.0582872    7.8447069    18.077225     7701.559   -2438.6268 
    8630    93.606823    1284.8833    9.0590459     9.059046    18.078739          120    11771.455    16324.827   -24509.695   -4301.9563    28259.275    4243.2332    9.0590459     7.845364    18.078739     1195.529   -2438.6789 
    8640    93.813187    1285.2076     9.059808    9.0598081     18.08026          120    9840.0932    12995.922   -32823.033   -4992.0634    28291.882    582.81094     9.059808     7.846024     18.08026   -3329.0058   -2438.6922 
    8650    95.221258    1285.5321    9.0605705    9.0605706    18.081781          120    13738.468     18423.26   -23233.819     -5725.22    25700.882    8757.5952    9.0605705    7.8466843    18.081781    2975.9697   -2438.7246 
    8660    96.018604     1285.857    9.0613335    9.0613336    18.083304          120    12328.982        17228   -21291.738    -2922.989    27596.131    9823.5725    9.0613335    7.8473451    18.083304    2755.0815   -2438.7323 
    8670    96.542402    1286.1813    9.0620955    9.0620955    18.084825          120    6866.9065      10057.9   -33107.129   -2826.6098    28502.644     2502.737    9.0620955     7.848005    18.084825   -5394.1075   -2438.7475 
    8680    97.627881    1286.5038    9.0628526    9.0628527    18.086336          120    10696.734    11915.064   -33165.979   -5856.1944    26149.195     4735.843    9.0628526    7.8486607    18.086336   -3518.0604   -2438.7722 
    8690    97.413247    1286.8239    9.0636042    9.0636043    18.087836          120     14389.52    16248.017   -24506.934   -3704.8621    27143.434    11792.969    9.0636042    7.8493116    18.087836    2043.5342   -2438.7733 
    8700    98.529826    1287.1417    9.0643504    9.0643504    18.089325          120    7162.4028     11237.17   -29820.656   -784.53975    28499.774    8557.8626    9.0643504    7.8499578    18.089325   -3807.0277      -2438.8 
    8710    97.533135     1287.456    9.0650882    9.0650883    18.090797          120    5958.9733    7545.3373   -38897.728   -3786.6602    26659.246    3801.4988    9.0650882    7.8505967    18.090797   -8464.4724    -2438.778 
    8720    97.821583    1287.7659    9.0658154    9.0658155    18.092249          120    14419.323    12268.908   -32980.692   -5026.9229    26832.282    9031.7535    9.0658154    7.8512265    18.092249   -2097.4868   -2438.7777 
    8730    96.431496    1288.0716    9.0665327    9.0665328     18.09368          120    11259.731    12706.865   -28435.121   -1164.2126    28130.396    12821.765    9.0665327    7.8518477     18.09368   -1489.5084   -2438.7543 
    8740    95.164427    1288.3727     9.067239    9.0672391     18.09509          120    3262.8054    6781.7576    -38176.27   -474.72939    27443.564    7367.2679     9.067239    7.8524594     18.09509   -9377.2357   -2438.7348 
    8750    93.828838    1288.6678    9.0679314    9.0679315    18.096471          120    9881.6521    7320.7007   -41066.147   -3685.1523    27436.987    5851.9627    9.0679314     7.853059    18.096471   -7954.5982   -2438.7109 
    8760    91.771691    1288.9568    9.0686092    9.0686093    18.097824          120    14940.772    11534.163   -32158.929   -3265.9338    27812.713    12166.259    9.0686092    7.8536461    18.097824   -1894.6646   -2438.6842 
    8770    91.086643      1289.24    9.0692732    9.0692732    18.099149          120    5520.6897    8027.6482   -34569.753    407.23469    27913.813    11951.266    9.0692732     7.854221    18.099149   -7007.1385   -2438.6793 
    8780    89.815381    1289.5162    9.0699209     9.069921    18.100442          120    3338.6976    3922.2883   -43782.173   -30.705217    29024.992     5960.944    9.0699209     7.854782    18.100442   -12173.729    -2438.658 
    8790    90.192055    1289.7846    9.0705501    9.0705502    18.101697          120    13191.215    7791.5903   -39210.805   -3733.4551    28400.023    8482.3165    9.0705501    7.8553269    18.101697        -6076   -2438.6711 
    8800    90.477273    1290.0454    9.0711615    9.0711616    18.102917          120    11051.554    9185.9592   -34107.304   -2141.4666    27465.686    13339.547    9.0711615    7.8558564    18.102917   -4623.2637   -2438.6882 
    8810    91.570027    1290.2985    9.0717545    9.0717546    18.104101          120     897.9481    3765.0368   -41989.868    2035.5358    29807.666    8910.3518    9.0717545      7.85637    18.104101   -12442.294   -2438.6946 
    8820    92.737676    1290.5425    9.0723264    9.0723265    18.105242          120    5963.3117    3635.7879   -44715.837    -965.1461    29791.686    5953.8822    9.0723264    7.8568652    18.105242   -11705.579   -2438.7008 
    8830     93.20853    1290.7772    9.0728765    9.0728765     18.10634          120    14134.521    8532.0271   -38019.664   -5019.1216     26836.34    11171.793    9.0728765    7.8573416     18.10634   -5117.7055   -2438.7208 
    8840    94.119374    1291.0032    9.0734058    9.0734059    18.107396          120    5515.2198    6401.8186   -40205.465   -256.09491    28604.134    11520.818    9.0734058       7.8578    18.107396   -9429.4756   -2438.7415 
    8850    93.186913    1291.2196    9.0739127    9.0739127    18.108408          120   -627.50962    2081.1499   -46729.381    2096.2859    30419.878    6707.6498    9.0739127     7.858239    18.108408   -15091.914   -2438.7371 
    8860    92.907115    1291.4255     9.074395    9.0743951     18.10937          120    10060.885    5834.5052   -43092.963    -4698.733    26844.623     8511.016     9.074395    7.8586567     18.10937   -9065.8574   -2438.7469 
    8870    91.556744    1291.6214     9.074854     9.074854    18.110286          120    12288.909    8620.6754   -40358.228    -5067.983    26511.765    11911.163     9.074854    7.8590541    18.110286   -6482.8811   -2438.7257 
    8880    90.408229    1291.8076    9.0752899      9.07529    18.111156          120   -107.71591    3813.7462   -46090.854    1458.0425     29100.79    9311.8567    9.0752899    7.8594317    18.111156   -14128.275   -2438.7207 
    8890    90.074596    1291.9829    9.0757004    9.0757005    18.111975          120    1445.4446     3201.493   -46607.083   -1544.1469    26784.832    8049.9907    9.0757004    7.8597872    18.111975   -13986.715   -2438.7242 
    8900    89.415858    1292.1472    9.0760851    9.0760851    18.112743          120    13202.182    8103.6661   -42019.102   -7405.5663    24721.769    10870.251    9.0760851    7.8601203    18.112743   -6904.4179   -2438.7132 
    8910     90.72245    1292.3011    9.0764455    9.0764456    18.113463          120     6584.035    6580.9675   -44643.866   -2926.5779    26484.435    11140.168    9.0764455    7.8604325    18.113463   -10492.955   -2438.7351 
    8920    91.172823    1292.4442    9.0767804    9.0767804    18.114131          120   -3923.7202    2355.6654    -48447.74    414.62688    25726.124    9331.1656    9.0767804    7.8607225    18.114131   -16671.931   -2438.7553 
    8930    93.392399    1292.5753    9.0770873    9.0770874    18.114743          120    5968.4182    5309.7302   -44727.835   -5199.9858    23576.916    10043.635    9.0770873    7.8609883    18.114743   -11149.896   -2438.8006 
    8940    94.297692     1292.695    9.0773674    9.0773675    18.115302          120    11697.237    7625.3896   -43483.823   -6868.9573    24038.818    11313.635    9.0773674    7.8612309    18.115302   -8053.7322   -2438.8163 
    8950    95.763092    1292.8033    9.0776209     9.077621    18.115808          120   -1508.2665     3425.941   -48509.272    -1549.893    23981.788    10618.361    9.0776209    7.8614504    18.115808   -15530.533   -2438.8484 
    8960    96.248279    1292.8991    9.0778451    9.0778452    18.116256          120   -3086.9134    2336.1773   -47945.091   -1515.5639    22887.983    10093.352    9.0778451    7.8616446    18.116256   -16231.942   -2438.8645 
    8970    95.624528    1292.9821    9.0780395    9.0780395    18.116643          120    9346.2908    5995.7969   -43152.279   -6813.3838    22555.848    10938.347    9.0780395    7.8618129    18.116643   -9270.0636   -2438.8733 
    8980      95.4748    1293.0529    9.0782052    9.0782052    18.116974          120    5155.1535    4880.2956   -46222.264   -5920.6797    22106.315    11088.474    9.0782052    7.8619564    18.116974   -12062.271   -2438.8783 
    8990     93.17295     1293.111    9.0783411    9.0783411    18.117245          120   -5880.8721     1004.346   -50394.434   -985.82589    22392.221    10344.442    9.0783411    7.8620741    18.117245   -18423.654   -2438.8472 
    9000    92.590943    1293.1554    9.0784452    9.0784452    18.117453          120    1485.8049    2762.1632   -44759.873   -3362.2029    22541.526    10905.605    9.0784452    7.8621642    18.117453   -13503.968   -2438.8529 
    9010    90.409537    1293.1868    9.0785185    9.0785185    18.117599          120    8507.4429    5029.3193   -42431.599   -8239.3271     20871.06    11371.476    9.0785185    7.8622277    18.117599   -9631.6124   -2438.8266 
    9020    89.873904    1293.2053    9.0785617    9.0785618    18.117686          120   -1084.0241    1669.3472   -49688.293    -4594.139     21778.92    10009.677    9.0785617    7.8622652    18.117686   -16367.657   -2438.8266 
    9030    88.906549    1293.2101    9.0785731    9.0785732    18.117708          120   -4642.1064       270.08   -48530.047   -852.85789    23669.922    10372.854    9.0785731     7.862275    18.117708   -17634.024   -2438.8137 
    9040     88.64288    1293.2012    9.0785523    9.0785524    18.117667          120    5242.5966    3878.7167   -40347.408   -6218.8674    21268.556    12073.877    9.0785523     7.862257    18.117667   -10408.698   -2438.8178 
    9050    88.769957    1293.1794    9.0785013    9.0785014    18.117565          120    5238.5764    3710.2714   -44777.609   -8488.9452    21055.041    9952.6143    9.0785013    7.8622129    18.117565    -11942.92   -2438.8155 
    9060    88.196148    1293.1448    9.0784202    9.0784202    18.117403          120   -4202.8545    337.92265   -50866.797    -2346.406    24707.777    8370.8022    9.0784202    7.8621426    18.117403   -18243.909   -2438.8258 
    9070    88.690071    1293.0966    9.0783076    9.0783076    18.117178          120   -1234.0554    2761.6031   -42107.572   -2407.7138    23146.994    11977.071    9.0783076     7.862045    18.117178   -13526.675   -2438.8319 
    9080    87.493369    1293.0358    9.0781653    9.0781653    18.116895          120    6662.8505    6038.8686   -38476.356   -8513.7937    20924.877    11646.833    9.0781653    7.8619218    18.116895   -8591.5457   -2438.8135 
    9090    87.614617    1292.9633    9.0779954    9.0779955    18.116556          120    969.14766    3279.3165   -47768.519   -6115.2208    24584.727    6883.6573    9.0779954    7.8617747    18.116556   -14506.685    -2438.831 
    9100    86.684588    1292.8786    9.0777973    9.0777973     18.11616          120   -4834.3306    2633.0037   -45793.176   -1141.8571    24996.676    9368.8266    9.0777973    7.8616031     18.11616   -15998.168   -2438.8177 
    9110    86.469437     1292.782    9.0775711    9.0775712    18.115709          120    2821.3166    7256.8373   -35562.282   -4804.7674    21582.507    13411.294    9.0775711    7.8614073    18.115709   -8494.7093   -2438.8294 
    9120    86.644812    1292.6747      9.07732    9.0773201    18.115208          120    5239.0207     7627.539   -40431.311   -7297.0537    23642.753    8376.6673      9.07732    7.8611898    18.115208   -9188.2503   -2438.8492 
    9130    86.533055     1292.557    9.0770444    9.0770445    18.114658          120   -3559.3741     4870.614   -47410.861   -2765.3257    25736.931    5874.4138    9.0770444    7.8609511    18.114658    -15366.54   -2438.8557 
    9140    87.317411    1292.4284    9.0767435    9.0767436    18.114057          120   -2313.9835    7584.2817   -38484.701   -1390.3698    22588.379    11786.262    9.0767435    7.8606906    18.114057   -11071.468   -2438.8776 
    9150     87.11358      1292.29    9.0764194    9.0764194     18.11341          120    5400.6325    11052.163   -33964.135   -4593.7958     22455.86    11243.287    9.0764194    7.8604098     18.11341   -5837.1132   -2438.8915 
    9160    87.302122    1292.1425    9.0760741    9.0760742    18.112721          120    511.35791    9374.7632   -43908.341   -4243.5794    25039.021    4956.5798    9.0760741    7.8601108    18.112721    -11340.74   -2438.9037 
    9170    86.426261    1291.9857    9.0757069     9.075707    18.111989          120   -4452.3357    8941.6683   -44401.101   -1054.0082    23675.855    7274.5843    9.0757069    7.8597928    18.111989   -13303.923   -2438.9026 
    9180    85.486118    1291.8197    9.0753182    9.0753183    18.111213          120    2498.6759     12763.11   -33533.485   -1099.3248    22092.953    11962.348    9.0753182    7.8594562    18.111213   -6090.5665   -2438.8975 
    9190    84.360838    1291.6456    9.0749106    9.0749107    18.110399          120    3894.5818    13800.007   -36565.258   -3431.7064    23370.881    7564.7269    9.0749106    7.8591032    18.110399    -6290.223   -2438.8892 
    9200    82.670617    1291.4638    9.0744848    9.0744849     18.10955          120   -2762.9255    11910.505   -46664.258   -2739.9352    24120.444    3777.6887    9.0744848    7.8587344     18.10955    -12505.56   -2438.8703 
    9210    82.317933    1291.2738    9.0740397    9.0740398    18.108661          120   -400.53337    13735.662   -40170.562    -242.6813    23280.134    8719.5245    9.0740397     7.858349    18.108661   -8945.1446    -2438.885 
    9220    81.059027    1291.0762    9.0735769     9.073577    18.107738          120    5009.9082    16620.213   -32507.702   -1388.5327    22334.082     10715.79    9.0735769    7.8579482    18.107738   -3625.8604   -2438.8661 
    9230    81.460033    1290.8719    9.0730982    9.0730983    18.106782          120    832.43702    15043.372    -42444.23   -3756.8297    23112.597     4334.423    9.0730982    7.8575336    18.106782   -8856.1404   -2438.8845 
    9240    81.421879    1290.6603    9.0726026    9.0726026    18.105793          120   -1335.8709    14153.234   -47528.498   -2072.1325    24659.044    3291.5657    9.0726026    7.8571044    18.105793   -11570.379   -2438.8983 
    9250    81.861969    1290.4414    9.0720896    9.0720896     18.10477          120    4474.5724    17270.265   -36525.511   -583.84244     23170.28    10146.675    9.0720896    7.8566601     18.10477   -4926.8912   -2438.9024 
    9260    82.573048    1290.2159    9.0715611    9.0715611    18.103715          120    4549.3485    17432.133   -36384.496   -3143.8702    21861.507    8457.4352    9.0715611    7.8562024    18.103715   -4801.0049   -2438.9238 
    9270    82.355505    1289.9839    9.0710173    9.0710174     18.10263          120   -153.78288    14320.823   -48004.184    -4019.418    24766.181    722.09152    9.0710173    7.8557315     18.10263   -11279.048   -2438.9223 
    9280    82.967706    1289.7448    9.0704568    9.0704569    18.101511          120    3129.3541    15561.953   -44351.369   -1998.1071    25049.072    4819.5719    9.0704568    7.8552461    18.101511   -8553.3541    -2438.949 
    9290    81.862622    1289.4989    9.0698804    9.0698805    18.100361          120    7378.5288    18120.166   -34645.214   -2540.6511    21887.153    11228.966    9.0698804    7.8547469    18.100361   -3048.8395    -2438.941 
    9300    81.954603     1289.247    9.0692897    9.0692897    18.099182          120    3161.8551    15103.961   -41650.409   -4204.7283    23802.204    4007.5428    9.0692897    7.8542353    18.099182   -7794.8645   -2438.9526 
    9310    80.413982    1288.9886    9.0686838    9.0686838    18.097973          120    1941.3464    13020.996   -47860.883   -3840.2534    26352.721   -239.27244    9.0686838    7.8537106    18.097973    -10966.18   -2438.9352 
    9320    80.017184    1288.7236    9.0680622    9.0680623    18.096732          120    8374.2198    16398.974   -37720.223   -3554.7957    23176.198    8558.3985    9.0680622    7.8531723    18.096732   -4315.6763   -2438.9379 
    9330    79.075672     1288.453    9.0674274    9.0674275    18.095465          120    8295.2738    16217.358   -34396.796   -3588.6831    22949.987    9285.4693    9.0674274    7.8526226    18.095465   -3294.7216   -2438.9432 
    9340    78.264626    1288.1771    9.0667803    9.0667804    18.094174          120    2683.7719    12286.148   -43575.005   -3889.2002     26345.15    378.73526    9.0667803    7.8520622    18.094174   -9535.0285   -2438.9267 
    9350    78.561439    1287.8957    9.0661201    9.0661201    18.092856          120    6887.8749    13607.884   -41217.197   -5206.8851    24626.912    2883.3934    9.0661201    7.8514904    18.092856   -6907.1462   -2438.9284 
    9360    77.880567    1287.6095    9.0654483    9.0654484    18.091516          120    13042.867    16388.237   -31231.412   -4508.9283    22698.062    10438.977    9.0654483    7.8509086    18.091516   -600.10272   -2438.9256 
    9370    78.990658    1287.3195    9.0647678    9.0647679    18.090158          120    7355.8103    13738.905   -34984.973    -2876.242    25252.834    5741.0307    9.0647678    7.8503193    18.090158    -4630.086   -2438.9656 
    9380     78.98041    1287.0259    9.0640786    9.0640786    18.088782          120     4829.919    12230.809    -40810.82   -5018.4299    25165.031    579.19774    9.0640786    7.8497224    18.088782   -7916.6972   -2438.9658 
    9390    80.435912    1286.7287    9.0633807    9.0633808     18.08739          120    14148.134    15438.959   -32826.835   -6634.6876    22984.187    6700.5351    9.0633807     7.849118     18.08739    -1079.914   -2438.9999 
    9400    81.089592    1286.4292    9.0626775    9.0626775    18.085986          120    14360.255    15974.482   -28021.484   -3565.2246     23978.38    9934.9001    9.0626775     7.848509    18.085986    771.08437   -2439.0201 
    9410    82.340177    1286.1281    9.0619704    9.0619705    18.084575          120    6009.5762    13286.215   -35392.566   -3260.8033     24499.02    3877.6627    9.0619704    7.8478967    18.084575   -5365.5918   -2439.0565 
    9420    83.415506    1285.8252     9.061259     9.061259    18.083155          120    11288.629    14705.412   -35684.168   -7156.5515    23284.981    2897.4161     9.061259    7.8472805    18.083155   -3230.0425   -2439.1016 
    9430    83.848976    1285.5212    9.0605449     9.060545     18.08173          120    19137.544    17916.422   -26942.991   -6422.8968    23420.371    9142.8016    9.0605449    7.8466621     18.08173    3370.3251   -2439.1257 
    9440    84.827573    1285.2174    9.0598311    9.0598311    18.080306          120    11658.457    16424.451   -28525.217   -3057.3779    23406.255    8933.3564    9.0598311    7.8460439    18.080306   -147.43651   -2439.1575 
    9450    84.341941    1284.9138    9.0591175    9.0591176    18.078882          120    8196.1373    15030.051   -35085.963   -5177.4371    23127.766    3224.1231    9.0591175     7.845426    18.078882   -3953.2582    -2439.166 
    9460    84.719335    1284.6103    9.0584043    9.0584044    18.077459          120    18486.048    18830.602   -29943.311   -8281.4744    23579.932    5206.2408    9.0584043    7.8448084    18.077459    2457.7796   -2439.1812 
    9470    84.027913    1284.3083    9.0576943    9.0576943    18.076041          120    18901.647    20349.007   -24698.328   -5843.3278    22867.411    10450.679    9.0576943    7.8441934    18.076041    4850.7753   -2439.1787 
    9480    83.639346    1284.0082    9.0569889     9.056989    18.074634          120    9498.2939    17177.303   -30504.027   -3744.8806    22576.455    6878.4909    9.0569889    7.8435825    18.074634   -1276.1436   -2439.1743 
    9490    83.320158      1283.71    9.0562876    9.0562877    18.073234          120    13685.628    18515.385    -32150.87   -6904.3341    23780.435    2835.5098    9.0562876    7.8429752    18.073234     16.71427   -2439.1726 
    9500    82.586016    1283.4141    9.0555916    9.0555917    18.071845          120    22686.292    22986.784   -25334.001   -9019.5438    23006.883    7635.2248    9.0555916    7.8423724    18.071845    6779.6918   -2439.1525 
    9510    82.456383    1283.1215    9.0549035    9.0549036    18.070472          120    16139.401    20995.843   -25801.362   -5595.6445     22217.06     9543.219    9.0549035    7.8417765    18.070472    3777.9606   -2439.1647 
    9520    81.608378    1282.8324    9.0542233    9.0542234    18.069115          120    10260.806    18291.498   -30876.448    -4229.871    23623.099    4260.6028    9.0542233    7.8411875    18.069115   -774.71473   -2439.1723 
    9530    81.518042    1282.5465    9.0535506    9.0535507    18.067772          120    20076.425    22878.068   -27617.552   -9162.9047    23016.033    4450.0515    9.0535506    7.8406049    18.067772    5112.3135   -2439.1723 
    9540    80.796766    1282.2648    9.0528877    9.0528878    18.066449          120    23639.858    24892.155   -23884.201   -9700.2311    21830.798    8866.0176    9.0528877    7.8400308    18.066449    8215.9373   -2439.1633 
    9550    80.624552    1281.9879    9.0522362    9.0522363    18.065149          120    13320.637    20361.747   -27483.759   -4151.4916    23215.132    7015.6022    9.0522362    7.8394666    18.065149    2066.2084    -2439.169 
    9560    80.724744    1281.7157    9.0515953    9.0515954     18.06387          120    14544.595    21369.616   -28369.989   -6221.2956    22748.789     4155.395    9.0515953    7.8389116     18.06387    2514.7407   -2439.1787 
    9570    80.581165    1281.4483    9.0509659     9.050966    18.062614          120    25954.247    26724.374   -24193.282   -12265.845    20975.184    6542.9697    9.0509659    7.8383665    18.062614    9495.1131   -2439.1835 
    9580    81.749722     1281.187    9.0503506    9.0503507    18.061386          120     21582.41    24691.761   -24759.837   -7935.8449    22585.817    7913.4091    9.0503506    7.8378336    18.061386    7171.4447   -2439.2049 
    9590    81.924959    1280.9318    9.0497496    9.0497497    18.060187          120    12670.656    21577.255   -27987.168   -3848.6337    22783.258    6019.2072    9.0497496    7.8373132    18.060187    2086.9141   -2439.2161 
    9600    83.417089    1280.6824    9.0491623    9.0491623    18.059015          120    21961.819    26159.721   -25549.986   -10667.893    20081.175    5723.2127    9.0491623    7.8368045    18.059015    7523.8514   -2439.2418 
    9610    83.791837    1280.4397    9.0485907    9.0485908    18.057874          120     28426.13    28700.004   -23456.472    -12570.57    21349.519    6971.1464    9.0485907    7.8363095    18.057874    11223.221   -2439.2584 
    9620    84.315204    1280.2045    9.0480367    9.0480367    18.056768          120    17695.871    24960.982   -27136.191   -5695.8827    23207.779    7364.6331    9.0480367    7.8358297    18.056768    5173.5542   -2439.2806 
    9630     84.19857    1279.9764    9.0474991    9.0474991    18.055695          120    16645.521    25401.788   -27421.331   -7023.8133    20538.232    7063.3425    9.0474991    7.8353641    18.055695     4875.326   -2439.2879 
    9640    83.101879    1279.7555    9.0469786    9.0469787    18.054657          120    28682.409     30129.98   -23126.592   -13587.426    20256.515    6773.0932    9.0469786    7.8349134    18.054657    11895.266   -2439.2918 
    9650    82.168856     1279.543    9.0464779     9.046478    18.053657          120    25961.216    29797.676   -25099.398     -10661.2    23174.871    7493.5406    9.0464779    7.8344797    18.053657    10219.831   -2439.2926 
    9660    79.850683     1279.339    9.0459971    9.0459972    18.052698          120    16320.715     26941.73   -28705.029   -5866.2806    22409.257    8657.6383    9.0459971    7.8340634    18.052698     4852.472   -2439.2689 
    9670    78.953818    1279.1432    9.0455356    9.0455357    18.051777          120    23689.471    29714.982   -24123.639   -10208.511    20968.918     8364.889    9.0455356    7.8336637    18.051777    9760.2712   -2439.2631 
    9680    76.943555    1278.9566    9.0450956    9.0450957    18.050899          120    31031.537    33191.195   -22029.455   -13694.461    22912.535    7800.4504    9.0450956    7.8332827    18.050899    14064.425   -2439.2315 
    9690    76.858628    1278.7798    9.0446789     9.044679    18.050067          120    22041.472    30711.572   -27334.782   -8756.6416    24212.425    8750.4793    9.0446789    7.8329218    18.050067     8472.754   -2439.2399 
    9700    76.626948    1278.6126    9.0442848    9.0442849    18.049281          120    19027.193    29486.396   -26047.155   -6381.5446    23628.358    9671.7382    9.0442848    7.8325805    18.049281    7488.8115   -2439.2368 
    9710    77.185369    1278.4553    9.0439138    9.0439139     18.04854          120    29109.446    33862.685   -19951.414   -11401.242    23746.815    9358.4101    9.0439138    7.8322592     18.04854    14340.239   -2439.2601 
    9720     78.33048    1278.3088    9.0435683    9.0435684    18.047851          120    28734.226    34417.631    -23110.88   -12076.908     24890.47    8461.0377    9.0435683      7.83196    18.047851    13346.992   -2439.3057 
    9730    78.550044    1278.1732    9.0432486    9.0432487    18.047213          120    19463.091    30616.238   -26816.748   -6186.0293    26267.312    8725.8051    9.0432486    7.8316831    18.047213    7754.1934    -2439.318 
    9740    79.332531    1278.0483    9.0429539     9.042954    18.046625          120    23107.381    32671.203   -20297.139   -6519.0562    25953.656    10386.341    9.0429539    7.8314279    18.046625    11827.148   -2439.3399 
    9750    78.309137    1277.9346    9.0426858    9.0426859     18.04609          120     30697.62    36526.095   -17554.034   -11942.937     25091.14    9840.5838    9.0426858    7.8311957     18.04609     16556.56   -2439.3322 
    9760    77.681293    1277.8331    9.0424463    9.0424464    18.045612          120    24584.631    33466.644   -23638.935    -9137.559     27234.28    7379.2533    9.0424463    7.8309883    18.045612     11470.78    -2439.338 
    9770    75.649975    1277.7434    9.0422348    9.0422349     18.04519          120    19364.212    31753.475   -21880.205   -3912.0188    28197.433    9058.0527    9.0422348    7.8308051     18.04519    9745.8272   -2439.3087 
    9780    74.185855    1277.6657    9.0420514    9.0420515    18.044824          120     27126.05     36357.66   -14116.689   -8282.8603    25334.332    11724.372    9.0420514    7.8306463    18.044824    16455.674   -2439.2922 
    9790    72.678361    1277.6009    9.0418987    9.0418988    18.044519          120    29464.634    36602.258   -17095.318   -11316.743    26084.794    8265.3779    9.0418987    7.8305141    18.044519    16323.858   -2439.2679 
    9800    71.551135    1277.5495    9.0417773    9.0417774    18.044277          120    21059.518    32618.317   -22128.772   -5400.6428    28934.245     6508.532    9.0417773    7.8304089    18.044277    10516.355   -2439.2631 
    9810    71.750593    1277.5108    9.0416862    9.0416862    18.044095          120    22102.241    34705.552   -15276.973   -4645.2048    25791.379    11331.107    9.0416862      7.83033    18.044095    13843.607   -2439.2763 
    9820    71.661424    1277.4856    9.0416266    9.0416267    18.043976          120    29985.838    37781.084   -11229.703   -10322.612     23528.42    11107.934    9.0416266    7.8302784    18.043976     18845.74   -2439.2836 
    9830    72.819647    1277.4745    9.0416004    9.0416005    18.043924          120     25683.53     34796.48   -18612.607   -8613.6877    26855.043    6143.2779    9.0416004    7.8302557    18.043924    13955.801   -2439.3233 
    9840    73.307229    1277.4771    9.0416066    9.0416067    18.043936          120    20058.128    33558.201    -18995.36   -4296.3131    25988.999    8765.2687    9.0416066    7.8302611    18.043936    11540.323   -2439.3286 
    9850    73.804908    1277.4933    9.0416448    9.0416449    18.044012          120     26964.16    36733.902   -10090.417   -7528.8183    21509.974     13042.04    9.0416448    7.8302942    18.044012    17869.215   -2439.3509 
    9860    73.786117    1277.5239    9.0417171    9.0417171    18.044156          120    29529.517    36404.642   -11699.307    -10128.69     22741.99    9158.9214    9.0417171    7.8303568    18.044156    18078.284   -2439.3556 
    9870    72.885412    1277.5692    9.0418238    9.0418239     18.04437          120    22164.547    33565.138   -19261.895   -6903.8027    24622.627    7074.1201    9.0418238    7.8304492     18.04437     12155.93   -2439.3564 
    9880     72.12853    1277.6285    9.0419638    9.0419638    18.044649          120    23739.634    34618.329   -13489.441   -6121.2402    21460.407    12146.912    9.0419638    7.8305704    18.044649    14956.174   -2439.3535 
    9890    70.574847    1277.7024     9.042138    9.0421381    18.044997          120    30391.031    36295.789    -6548.938   -9007.1446    19805.485    13079.542     9.042138    7.8307213    18.044997    20045.961   -2439.3433 
    9900    69.927088    1277.7915    9.0423482    9.0423483    18.045416          120    26638.838    34005.832   -13943.512   -9186.8914    21669.051    8640.6736    9.0423482    7.8309034    18.045416    15567.053   -2439.3367 
    9910    68.904156    1277.8954    9.0425934    9.0425935    18.045905          120    22976.974    32268.319   -16997.003   -7075.9103    21922.375    9372.0506    9.0425934    7.8311157    18.045905     12749.43   -2439.3235 
    9920    68.749353     1278.014     9.042873    9.0428731    18.046463          120    28532.049    34342.563   -7019.9348   -7246.0628    20117.662    14215.792     9.042873    7.8313578    18.046463    18618.226   -2439.3316 
    9930    68.802471    1278.1479    9.0431888    9.0431888    18.047093          120    29937.809    34296.357   -7047.9936   -9124.2946    19529.764    12839.058    9.0431888    7.8316313    18.047093    19062.058   -2439.3399 
    9940     68.44298     1278.297    9.0435406    9.0435406    18.047796          120     24757.13    30593.697    -16206.92    -8659.733    21304.985    8385.7163    9.0435406    7.8319359    18.047796    13047.969   -2439.3432 
    9950    68.857968    1278.4608    9.0439268    9.0439269    18.048566          120    26015.734    30888.485   -11806.838   -6864.3813    22219.695    11616.344    9.0439268    7.8322704    18.048566     15032.46   -2439.3611 
    9960    67.881158    1278.6394    9.0443478    9.0443478    18.049406          120    30271.711     33605.75   -4046.0605     -7847.19    20190.443    16191.231    9.0443478     7.832635    18.049406      19943.8   -2439.3543 
    9970    67.823935    1278.8331    9.0448045    9.0448046    18.050318          120    27176.376    30713.403   -10943.435   -9186.0916    20387.644     11744.43    9.0448045    7.8330306    18.050318    15648.781   -2439.3653 
    9980       66.634    1279.0414    9.0452956    9.0452956    18.051298          120    24403.974    27880.116   -15749.778   -7620.4073    23525.102    8891.1202    9.0452956    7.8334558    18.051298    12178.104   -2439.3563 
    9990    66.180803    1279.2637    9.0458197    9.0458198    18.052344          120    28423.351    31324.717   -7258.2841   -7322.8852    22498.445    15331.647    9.0458197    7.8339098    18.052344    17496.594   -2439.3538 
   10000     65.56453    1279.5006    9.0463778    9.0463779    18.053458          120    28826.178    31718.275   -5983.2976   -8829.1552    20311.278    16496.504    9.0463778    7.8343931    18.053458    18187.051   -2439.3488 
Loop time of 28.4793 on 1 procs for 10000 steps with 128 atoms

Performance: 3.034 ns/day, 7.911 hours/ns, 351.133 timesteps/s
99.9% CPU use with 1 MPI tasks x no OpenMP threads

MPI task timing breakdown:
Section |  min time  |  avg time  |  max time  |%varavg| %total
---------------------------------------------------------------
Pair    | 23.437     | 23.437     | 23.437     |   0.0 | 82.29
Bond    | 0.0072341  | 0.0072341  | 0.0072341  |   0.0 |  0.03
Kspace  | 1.8214     | 1.8214     | 1.8214     |   0.0 |  6.40
Neigh   | 0.51004    | 0.51004    | 0.51004    |   0.0 |  1.79
Comm    | 0.2622     | 0.2622     | 0.2622     |   0.0 |  0.92
Output  | 1.2334     | 1.2334     | 1.2334     |   0.0 |  4.33
Modify  | 1.1628     | 1.1628     | 1.1628     |   0.0 |  4.08
Other   |            | 0.04536    |            |       |  0.16

Nlocal:    128 ave 128 max 128 min
Histogram: 1 0 0 0 0 0 0 0 0 0
Nghost:    8257 ave 8257 max 8257 min
Histogram: 1 0 0 0 0 0 0 0 0 0
Neighs:    95774 ave 95774 max 95774 min
Histogram: 1 0 0 0 0 0 0 0 0 0

Total # of neighbors = 95774
Ave neighs/atom = 748.234
Ave special neighs/atom = 0.1875
Neighbor list builds = 195
Dangerous builds = 0
print		" "
 
print		"All done!"
All done!
Total wall time: 0:00:31
