LAMMPS (22 Aug 2018)
  using 1 OpenMP thread(s) per MPI task
#nimud floating point parameter in input script or data file (../fix_nh.cpp:132)energy for Beryl

#----- Initialize Simulation -----
clear
  using 1 OpenMP thread(s) per MPI task
units           metal
boundary        p p p
atom_style      full
bond_style      none
variable        probeTemp equal 10

#----- Create Atoms -----
read_data       mod/beryl.xyz
  triclinic box = (0 0 0) to (9.208 7.97436 18.376) with tilt (-4.604 0 0)
  1 by 1 by 4 MPI processor grid
  reading atoms ...
  116 atoms
  0 = max # of 1-2 neighbors
  0 = max # of 1-3 neighbors
  0 = max # of 1-4 neighbors
  1 = max # of special neighbors
replicate       8 8 2
  triclinic box = (0 0 0) to (73.664 63.7949 36.752) with tilt (-36.832 0 0)
  2 by 2 by 1 MPI processor grid
  14848 atoms
  0 = max # of 1-2 neighbors
  0 = max # of 1-3 neighbors
  0 = max # of 1-4 neighbors
  1 = max # of special neighbors
  Time spent = 0.00739356 secs

#----- Define Interatomic Potential -----
include         mod/potential_main.mod
kspace_style 	pppm 1.0e-4

# Neighbor Style
neighbor	2.0 bin
neigh_modify	delay 0 every 1 check yes

# Setup Output
thermo_style	custom	step temp vol cella cellb cellc cellgamma pxx pyy pzz pxy pxz pyz lx ly lz press pe #c_eatoms
thermo_modify	norm no
variable 	myVol equal vol
variable	myCella equal cella
variable	myCellb equal cellb
variable	myCellc equal cellc
variable	myCellgamma equal cellgamma
include         mod/potential_beryl.mod
# Potential Paramters
pair_style 	hybrid/overlay morse 5.5 buck 5.5 lj/cut/coul/long 5.5 15.0
pair_coeff    1    1 morse     		  0 	       0           0  # Be Be
pair_coeff    1    1 buck                 0            1           -201.0
pair_coeff    1    1 lj/cut/coul/long	  10120.	0.413
pair_coeff    1    2 morse     		  0 	       0           0  # Be Al
pair_coeff    1    2 buck                 0            1           0
pair_coeff    1    2 lj/cut/coul/long	  0	       0
pair_coeff    1    3 morse     		  0 	       0           0  # Al Si
pair_coeff    1    3 buck                 0            1           0
pair_coeff    1    3 lj/cut/coul/long	  0	       0
pair_coeff    1    4 morse 		  0.239919     2.527420    1.815405	#Be O
pair_coeff    1    4 buck                 0.000000     1.000000   -46.00000
pair_coeff    1    4 lj/cut/coul/long     529.000      0.528
pair_coeff    2    2 morse     		  0 	       0           0  # Al Al
pair_coeff    2    2 buck                 0            1           -492.
pair_coeff    2    2 lj/cut/coul/long	  60423		0.356
pair_coeff    2    3 morse     		  0 	       0           0  # Al si
pair_coeff    2    3 buck                 0            1           0
pair_coeff    2    3 lj/cut/coul/long	  0	       0
pair_coeff    2    4 morse 		  0.361581     1.900442    2.164818	#Al O
pair_coeff    2    4 buck                 0.000000     1.000000   -71.5
pair_coeff    2    4 lj/cut/coul/long     1420.0	0.482
pair_coeff    3    3 morse     		  0 	       0           0  # Si Si
pair_coeff    3    3 buck                 0            1           -282.
pair_coeff    3    3 lj/cut/coul/long	  19730		0.391
pair_coeff    3    4 morse 		  0.340554     2.006700    2.100000	#Si O
pair_coeff    3    4 buck                 0.000000     1.000000   -60.5
pair_coeff    3    4 lj/cut/coul/long     916.		0.504
pair_coeff    4    4 morse     		  0.042395     1.379316    3.618701  # O O
pair_coeff    4    4 buck                 0.000000     1.000000   -16.7
pair_coeff    4    4 lj/cut/coul/long	  3.16		1.05
#------ Define Settings -----

# ----- Run Minimization -----
reset_timestep  0
timestep        0.001
velocity        all create ${probeTemp} 87287 loop geom
velocity        all create 10 87287 loop geom
fix             1 all npt temp ${probeTemp} ${probeTemp} 0.1 iso 1.013 1.013 5.0
fix             1 all npt temp 10 ${probeTemp} 0.1 iso 1.013 1.013 5.0
fix             1 all npt temp 10 10 0.1 iso 1.013 1.013 5.0

run             14000 # Warmup
PPPM initialization ...
WARNING: System is not charge neutral, net charge = -0.2048 (../kspace.cpp:302)
  using 12-bit tables for long-range coulomb (../kspace.cpp:321)
  G vector (1/distance) = 0.201681
  grid = 36 50 24
  stencil order = 5
  estimated absolute RMS force accuracy = 0.00105653
  estimated relative force accuracy = 7.33721e-05
  using double precision FFTs
  3d grid and FFT values/proc = 24800 10800
Neighbor list info ...
  update every 1 steps, delay 0 steps, check yes
  max neighbors/atom: 2000, page size: 100000
  master list distance cutoff = 17
  ghost atom cutoff = 17
  binsize = 8.5, bins = 13 8 5
  3 neighbor lists, perpetual/occasional/extra = 3 0 0
  (1) pair morse, perpetual
      attributes: half, newton on
      pair build: half/bin/newton/tri
      stencil: half/bin/3d/newton/tri
      bin: standard
  (2) pair buck, perpetual, copy from (1)
      attributes: half, newton on
      pair build: copy
      stencil: none
      bin: none
  (3) pair lj/cut/coul/long, perpetual, copy from (1)
      attributes: half, newton on
      pair build: copy
      stencil: none
      bin: none
Per MPI rank memory allocation (min/avg/max) = 54.16 | 54.16 | 54.16 Mbytes
Step Temp Volume Cella Cellb Cellc CellGamma Pxx Pyy Pzz Pxy Pxz Pyz Lx Ly Lz Press PotEng 
       0           10    172711.88       73.664    73.664001       36.752          120   -204217.99   -204209.08   -275754.38    1.0250408   0.54269768   0.23015431       73.664    63.794896       36.752   -228060.48   -308813.26 
   14000    10.153205    163041.33    72.262636    72.262636     36.05284          120    16247.415    16734.176   -32660.994   -179.85673   -4625.0827    453.04596    72.262636    62.581279     36.05284    106.86597   -311843.59 
Loop time of 3411.6 on 4 procs for 14000 steps with 14848 atoms

Performance: 0.355 ns/day, 67.691 hours/ns, 4.104 timesteps/s
99.4% CPU use with 4 MPI tasks x 1 OpenMP threads

MPI task timing breakdown:
Section |  min time  |  avg time  |  max time  |%varavg| %total
---------------------------------------------------------------
Pair    | 3059.1     | 3141.5     | 3181.8     |  88.5 | 92.08
Bond    | 0.005153   | 0.0058669  | 0.0066381  |   0.8 |  0.00
Kspace  | 162.84     | 203.08     | 285.5      | 348.2 |  5.95
Neigh   | 3.8483     | 3.8956     | 4.0012     |   3.1 |  0.11
Comm    | 8.6035     | 8.6481     | 8.713      |   1.4 |  0.25
Output  | 0.00012787 | 0.00014047 | 0.00017769 |   0.0 |  0.00
Modify  | 50.934     | 51.679     | 52.29      |   6.7 |  1.51
Other   |            | 2.774      |            |       |  0.08

Nlocal:    3712 ave 3716 max 3707 min
Histogram: 1 0 0 0 1 0 0 1 0 1
Nghost:    26903 ave 26915 max 26885 min
Histogram: 1 0 0 0 0 1 0 0 0 2
Neighs:    3.46595e+06 ave 3.47208e+06 max 3.46228e+06 min
Histogram: 1 1 0 1 0 0 0 0 0 1

Total # of neighbors = 13863781
Ave neighs/atom = 933.714
Ave special neighs/atom = 0
Neighbor list builds = 16
Dangerous builds = 0
reset_timestep  0
fix             2 all ave/time 1 1 50 c_thermo_temp c_thermo_pe c_thermo_press v_myVol v_myCella v_myCellb v_myCellc v_myCellgamma file data/current_run/cp_rawTemp${probeTemp}.dat # Potential energy, parameters, volume
fix             2 all ave/time 1 1 50 c_thermo_temp c_thermo_pe c_thermo_press v_myVol v_myCella v_myCellb v_myCellc v_myCellgamma file data/current_run/cp_rawTemp10.dat 
run             500000
PPPM initialization ...
  using 12-bit tables for long-range coulomb (../kspace.cpp:321)
  G vector (1/distance) = 0.202623
  grid = 36 50 24
  stencil order = 5
  estimated absolute RMS force accuracy = 0.000996501
  estimated relative force accuracy = 6.92032e-05
  using double precision FFTs
  3d grid and FFT values/proc = 24800 10800
Per MPI rank memory allocation (min/avg/max) = 57.63 | 57.63 | 57.63 Mbytes
Step Temp Volume Cella Cellb Cellc CellGamma Pxx Pyy Pzz Pxy Pxz Pyz Lx Ly Lz Press PotEng 
       0    10.153205    163041.33    72.262636    72.262636     36.05284          120    16260.281    16747.748   -32652.992   -179.84091   -4624.9355    453.08398    72.262636    62.581279     36.05284    118.34544    -311843.4 
  500000    9.9567573    163069.73    72.266831    72.266831    36.054933          120    16389.887    16564.083   -32518.264   -226.41466    -4633.228    448.05318    72.266831    62.584912    36.054933    145.23536   -311843.49 
Loop time of 68473.6 on 4 procs for 500000 steps with 14848 atoms

Performance: 0.631 ns/day, 38.041 hours/ns, 7.302 timesteps/s
99.8% CPU use with 4 MPI tasks x 1 OpenMP threads

MPI task timing breakdown:
Section |  min time  |  avg time  |  max time  |%varavg| %total
---------------------------------------------------------------
Pair    | 62702      | 63267      | 63736      | 187.7 | 92.40
Bond    | 0.12196    | 0.14406    | 0.1806     |   6.4 |  0.00
Kspace  | 3335.6     | 3800.4     | 4362.1     | 761.1 |  5.55
Neigh   | 0          | 0          | 0          |   0.0 |  0.00
Comm    | 209.85     | 212.4      | 214.64     |  12.2 |  0.31
Output  | 9.8926e-05 | 0.00010065 | 0.00010164 |   0.0 |  0.00
Modify  | 1120.7     | 1139.1     | 1154.7     |  35.9 |  1.66
Other   |            | 54.51      |            |       |  0.08

Nlocal:    3712 ave 3716 max 3707 min
Histogram: 1 0 0 0 1 0 0 1 0 1
Nghost:    26903.5 ave 26919 max 26882 min
Histogram: 1 0 0 1 0 0 0 0 0 2
Neighs:    3.46679e+06 ave 3.47114e+06 max 3.46324e+06 min
Histogram: 1 1 0 0 0 0 1 0 0 1

Total # of neighbors = 13867147
Ave neighs/atom = 933.94
Ave special neighs/atom = 0
Neighbor list builds = 0
Dangerous builds = 0
unfix           2
variable        probeTemp delete

Total wall time: 19:58:06
167   -311707.48 
     850    61.958567    162880.08    72.238806    72.238806    36.040951          120    16648.718    17820.026   -32850.966    214.56621    -1269.043    1065.0469    72.238806    62.560641    36.040951    539.25961   -311718.52 
     900    57.495739    162889.09    72.240136    72.240137    36.041614          120    16175.833    17396.634    -34197.02    344.16532    -1215.089    1489.8678    72.240136    62.561794    36.041614   -208.18414   -311726.22 
     950    53.971275    162886.44    72.239745    72.239746    36.041419          120    15973.774    17411.361   -33040.705   -214.45785   -944.46188    1206.1219    72.239745    62.561455    36.041419    114.81002   -311732.37 
    1000    52.746735    162884.24     72.23942    72.239421    36.041257          120    15824.419    17651.642   -33413.751     89.92402   -827.51031    1019.0847     72.23942    62.561173    36.041257    20.769998   -311738.72 
    1050    51.818174    162886.47     72.23975    72.239751    36.041422          120    16205.953    17557.004   -33292.794     245.3271   -606.73645    1159.5118     72.23975    62.561459    36.041422    156.72097   -311743.56 
    1100    51.543378    162894.24    72.240898    72.240899    36.041995          120     16649.09    17490.928   -33128.814   -131.73803   -726.26301      1126.09    72.240898    62.562454    36.041995    337.06796   -311744.47 
    1150    51.544141       162905    72.242488    72.242489    36.042788          120     16120.72    16959.909   -33598.665    303.53808   -615.08004    2034.6695    72.242488    62.563831    36.042788   -172.67883   -311744.57 
    1200    52.834117    162906.01    72.242637    72.242638    36.042862          120    16065.404    16898.871   -33727.962     278.9848   -198.06728    1895.3355    72.242637     62.56396    36.042862   -254.56239   -311743.04 
    1250    55.031918    162906.43      72.2427      72.2427    36.042893          120    16374.268    17680.038   -34159.242    518.26253   -358.46353    2074.7975      72.2427    62.564014    36.042893   -34.978735   -311741.87 
    1300    56.077329    162909.24    72.243116    72.243116    36.043101          120    16462.747    18459.748   -33513.923     480.0782   -519.11937    1938.4215    72.243116    62.564374    36.043101    469.52393   -311739.08 
    1350    57.065158    162927.27     72.24578    72.245781     36.04443          120    16215.068    17418.535   -34125.187    398.43528   -312.41828    1699.2488     72.24578    62.566681     36.04443   -163.86109   -311737.46 
    1400    57.955342    162949.56    72.249074    72.249075    36.046074          120    16543.462    18062.471   -33539.047     587.3858   -683.46308    1841.5238    72.249074    62.569535    36.046074    355.62871   -311738.17 
    1450    58.264941    162972.36    72.252445    72.252446    36.047756          120    16164.029    17711.037   -33567.193    208.16225   -369.57036     1377.389    72.252445    62.572454    36.047756    102.62442   -311740.23 
    1500     57.77599    162991.49    72.255271    72.255271    36.049165          120    16293.118    17878.689   -33533.123     279.9089   -650.62947    1423.8907    72.255271    62.574901    36.049165     212.8947   -311743.14 
    1550    55.753238    163019.63    72.259429     72.25943     36.05124          120    16194.119    18216.461    -33633.63    516.01599   -104.09451    1883.7145    72.259429    62.578502     36.05124    258.98337   -311745.56 
    1600    55.059656     163047.2    72.263503    72.263503    36.053272          120    16034.169    18151.311   -33955.292     340.0877    -309.3324    1530.1899    72.263503     62.58203    36.053272    76.729286   -311750.95 
    1650    53.481493     163067.3    72.266473    72.266473    36.054754          120    16143.032    17729.624    -34643.29   -38.186914    309.10462    1665.9992    72.266473    62.584602    36.054754    -256.8781   -311753.17 
    1700    53.062927    163072.11    72.267183    72.267183    36.055108          120    16007.711    17579.959   -33817.136    209.38648   -138.78485    1816.5471    72.267183    62.585217    36.055108   -76.488563   -311756.31 
    1750    52.005912    163067.08     72.26644    72.266441    36.054738          120    15846.507    17972.198   -33792.514     593.2071   -506.06964    1183.9697     72.26644    62.584574    36.054738    8.7304357   -311755.59 
    1800    53.052966    163058.29    72.265142    72.265142     36.05409          120    16353.393    17250.945    -34146.17    623.24895    188.39397    1744.9638    72.265142    62.583449     36.05409   -180.61079    -311757.3 
    1850    53.919797    163050.92    72.264052    72.264053    36.053546          120     16329.75     17608.26    -33935.91   -201.60212   -561.31834    922.80961    72.264052    62.582506    36.053546   0.70019491   -311755.38 
    1900    55.296233    163044.44    72.263095    72.263096    36.053069          120    15646.563    17573.618   -33831.605   -19.656385    74.615582    1396.7053    72.263095    62.581677    36.053069   -203.80803    -311753.5 
    1950    56.052309    163034.05     72.26156     72.26156    36.052303          120     16149.48    17511.134   -33661.738    80.953556   -372.48468    532.86676     72.26156    62.580347    36.052303  -0.37484042   -311750.64 
    2000    57.290655    163029.57    72.260898    72.260899    36.051973          120    16272.845    17144.286   -33465.092    338.79022   -843.37044    1437.8505    72.260898    62.579774    36.051973   -15.987268   -311749.76 
    2050    57.813158    163030.58    72.261047    72.261048    36.052047          120    16788.127    18124.634    -33015.96    238.96627   -258.72244    902.10228    72.261047    62.579903    36.052047    632.26716   -311749.56 
    2100    57.291613    163064.57    72.266069    72.266069    36.054553          120    16629.524    17956.195   -34276.667    120.48369   -597.88381    933.23072    72.266069    62.584252    36.054553    103.01737   -311750.24 
    2150    56.601551    163109.46      72.2727      72.2727    36.057861          120    16192.971    17568.305   -34183.239    227.55471   -305.74288    1277.6795      72.2727    62.589995    36.057861    -140.6541   -311752.06 
    2200    54.708765    163137.06    72.276776    72.276777    36.059895          120    15749.108    17278.519   -34171.806    13.503637   -287.24242    1042.5365    72.276776    62.593525    36.059895   -381.39305   -311753.68 
    2250    53.889859    163140.35    72.277263    72.277263    36.060137          120    15514.427     16690.43   -34602.166    375.21929   -344.11625    710.47265    72.277263    62.593946    36.060137   -799.10297   -311755.68 
    2300    53.523006    163117.77    72.273927    72.273928    36.058473          120    15802.286    17955.966   -34044.158     259.6407   -267.89988    774.80405    72.273927    62.591058    36.058473   -95.301942   -311759.26 
    2350    52.466768    163097.77    72.270973    72.270974    36.056999          120    16461.459    18197.508   -33893.823    342.25356   -344.90968    1242.9166    72.270973    62.588499    36.056999    255.04824   -311759.42 
    2400    53.107635     163095.7    72.270667    72.270668    36.056847          120    15967.685    17661.548   -33682.916    258.00967   -674.23054    1016.9237    72.270667    62.588235    36.056847   -17.894242   -311760.91 
    2450    53.446479    163102.14    72.271619     72.27162    36.057322          120    16056.355    17653.258   -33754.513    89.321197   -174.69145    1045.8321    72.271619    62.589059    36.057322   -14.966502   -311759.86 
    2500    54.512088     163111.9    72.273061    72.273061    36.058041          120    16097.637    17646.252   -34333.815    509.79105   -351.00455    1427.6172    72.273061    62.590307    36.058041   -196.64185   -311758.33 
    2550    55.684581    163116.39    72.273723    72.273723    36.058371          120    16048.449    17998.419   -33999.497   -85.567652   -690.78959      1007.37    72.273723    62.590881    36.058371    15.790464   -311756.94 
    2600    56.125222    163117.91    72.273948    72.273949    36.058484          120    16700.568    17365.979   -34005.971     536.8679   -363.18897     1359.272    72.273948    62.591076    36.058484    20.191904   -311754.81 
    2650    56.707327    163115.08    72.273529     72.27353    36.058275          120     16413.55    17159.439   -33488.727    321.40416   -265.40382    1156.7629    72.273529    62.590713    36.058275    28.087234   -311753.92 
    2700    56.682366    163109.41    72.272693    72.272693    36.057857          120    16249.938      17875.8   -33738.892    288.52102   -703.46925    1548.4003    72.272693    62.589988    36.057857    128.94882   -311753.84 
    2750    55.989397    163118.44    72.274026    72.274027    36.058523          120    16372.368    18026.929   -34034.056    353.21989   -718.59661    1335.1965    72.274026    62.591143    36.058523    121.74702   -311753.77 
    2800    56.096461     163137.9    72.276901    72.276901    36.059957          120    16256.819    17705.849   -34030.102    593.64509   -540.85715    1353.7678    72.276901    62.593633    36.059957   -22.477859   -311755.86 
    2850    55.147841    163155.06    72.279435    72.279435    36.061221          120    16124.087    17094.262    -34125.58    424.80468    332.68665    802.79028    72.279435    62.595827    36.061221   -302.41011    -311757.1 
    2900    54.190514    163158.01    72.279869     72.27987    36.061438          120    15930.375    17514.259   -34055.864    457.06075   -360.13417    1380.1841    72.279869    62.596203    36.061438   -203.74346   -311758.91 
    2950    54.394821    163144.04    72.277806    72.277807    36.060409          120    15257.709    17768.159   -34003.521    534.85228   -52.978999    962.39266    72.277806    62.594417    36.060409    -325.8846   -311761.94 
    3000    53.633259    163117.57    72.273897    72.273898    36.058458          120    15862.703    17395.181   -34522.769    160.85772    -371.3706    787.26739    72.273897    62.591032    36.058458   -421.62821   -311761.63 
    3050    53.954493    163086.04    72.269241    72.269241    36.056135          120    16360.664    17965.696   -34335.629    164.16408   -381.82532    1407.8928    72.269241    62.586999    36.056135   -3.0894789   -311762.56 
    3100    54.391971     163060.4    72.265453    72.265454    36.054245          120    16248.679    18461.455   -33106.824    549.49678   -398.51151    1690.1847    72.265453    62.583719    36.054245    534.43653   -311762.14 
    3150      54.1308    163062.34    72.265739    72.265739    36.054388          120    17210.832    18636.052   -32949.501    396.79047   -282.13556    1271.5873    72.265739    62.583966    36.054388    965.79415   -311759.08 
    3200    55.436936    163115.19    72.273546    72.273546    36.058283          120    15927.688    17862.129   -33738.948   -70.232289   -614.47775    1346.5109    72.273546    62.590727    36.058283    16.956413   -311758.34 
    3250    55.952152     163164.9    72.280887    72.280887    36.061945          120    15513.401    17461.785   -34125.553      323.177   -326.60791    898.38356    72.280887    62.597085    36.061945   -383.45583   -311756.55 
    3300    56.542456    163178.15    72.282843    72.282844    36.062922          120    16397.928    17577.839   -34242.419     541.3548    126.52867    1026.0004    72.282843    62.598779    36.062922   -88.883926   -311756.24 
    3350    56.584882    163175.81    72.282498    72.282498    36.062749          120    16115.426    17620.865   -33926.511    297.50174   -136.65415    1209.9708    72.282498     62.59848    36.062749   -63.406496   -311756.39 
    3400    55.819206    163167.62    72.281289     72.28129    36.062146          120    16103.691    17601.685   -34178.969    56.178642   -487.16524    1017.7957    72.281289    62.597433    36.062146   -157.86443   -311755.68 
    3450    55.227601    163153.33    72.279178    72.279179    36.061093          120    16382.906    17304.229   -33878.013    77.766709    -714.4284    1365.7803    72.279178    62.595605    36.061093   -63.626455   -311756.99 
    3500    54.647482    163124.18    72.274873    72.274874    36.058945          120    15784.766    17674.852    -33906.35   -72.680331   -178.80634    1394.7107    72.274873    62.591877    36.058945   -148.91067   -311758.67 
    3550    53.988845    163086.89    72.269367    72.269367    36.056198          120    16515.424    18052.498   -34077.077    103.95202   -513.34201    1516.9241    72.269367    62.587108    36.056198    163.61531   -311760.36 
    3600    53.814248     163068.2    72.266605    72.266606     36.05482          120    16644.549    18173.342   -33425.115    502.60458      27.5944    1132.7137    72.266605    62.584717     36.05482    464.25884   -311761.66 
    3650    53.281688    163079.47     72.26827    72.268271    36.055651          120    17009.756    18362.886   -33440.432    219.04682   -384.15445     1102.183     72.26827    62.586158    36.055651    644.07003    -311761.3 
    3700    53.495591    163118.18    72.273987    72.273988    36.058503          120    16345.964    17783.581   -34224.861    401.57706    32.616907    1174.0579    72.273987     62.59111    36.058503   -31.771969   -311761.16 
    3750    53.899857       163156    72.279574    72.279574     36.06129          120    16265.795    17764.104   -33946.328    134.98541   -189.05221    1398.8477    72.279574    62.595948     36.06129    27.857094    -311759.9 
    3800    54.952754    163181.98     72.28341     72.28341    36.063204          120    15752.197      17354.6   -33993.468   -41.525801   -308.67864    757.74146     72.28341     62.59927    36.063204   -295.55706   -311759.41 
    3850    55.716228    163186.62    72.284095    72.284095    36.063546          120    16379.205    17595.681   -33918.384    -214.3815   -550.08171    1277.0777    72.284095    62.599863    36.063546    18.833761   -311758.02 
    3900    56.294181    163182.31    72.283458    72.283458    36.063228          120    15896.704    17825.294   -34302.063    256.58987   -579.04061    807.50825    72.283458    62.599311    36.063228   -193.35481   -311756.76 
    3950    56.360688    163162.83    72.280581    72.280582    36.061793          120    15854.262    17305.383    -34545.27    322.03764   -789.20936     922.8859    72.280581     62.59682    36.061793   -461.87491   -311755.92 
    4000    56.774109    163127.69    72.275393    72.275393    36.059204          120    16370.386    17936.581   -33444.196   -46.578321   -251.19897    904.63232    72.275393    62.592327    36.059204    287.59046   -311757.63 
    4050    55.137974    163110.64    72.272874    72.272874    36.057948          120    16094.009    18447.359   -33402.177    199.40104   -417.95991    761.60857    72.272874    62.590145    36.057948    379.73032   -311756.03 
    4100    55.687443    163111.72    72.273033    72.273033    36.058027          120    16036.234    17329.272   -33950.402    333.07363   -105.18351    987.05892    72.273033    62.590283    36.058027   -194.96522    -311759.3 
    4150    54.690196    163110.66    72.272877    72.272878    36.057949          120    16470.483    17861.855   -33658.813   -88.376567   -247.34059    1388.4824    72.272877    62.590148    36.057949    224.50813   -311759.18 
    4200    53.802747    163118.98    72.274106    72.274107    36.058563          120    16709.352    18659.981    -33397.32   -28.827897   -150.40374    1404.9689    72.274106    62.591213    36.058563    657.33759   -311759.98 
    4250    54.026973    163154.39    72.279335    72.279335    36.061171          120    15970.444    17259.181   -34598.886     69.54557   -240.01629    1181.0069    72.279335    62.595741    36.061171   -456.42046   -311761.58 
    4300    53.873105    163173.68    72.282184    72.282184    36.062592          120    16100.635    17657.806    -33904.35    157.31299   -587.07188    1607.3441    72.282184    62.598208    36.062592   -48.636638   -311761.63 
    4350    54.171636    163169.76    72.281605    72.281606    36.062304          120    15561.232    18053.442     -33934.6    200.99506   -768.31038    1165.0479    72.281605    62.597707    36.062304   -106.64198   -311761.17 
    4400     54.66433    163149.48    72.278611    72.278611     36.06081          120     15860.25    17711.746   -34284.371     63.64033   -73.870859    1880.0478    72.278611    62.595114     36.06081   -237.45863   -311760.36 
    4450    55.066917    163119.32    72.274156    72.274156    36.058587          120    15964.071    18057.608   -33530.049    -1.608435   -282.47015    758.12379    72.274156    62.591256    36.058587    163.87679      -311759 
    4500    55.600691    163105.17    72.272066    72.272066    36.057544          120    16634.387    17965.317   -33768.823    306.33126   -211.80266    1673.7683    72.272066    62.589445    36.057544    276.96055   -311758.25 
    4550    55.672103    163115.63     72.27361    72.273611    36.058315          120    16741.992     18727.79   -33198.069    258.30124   -280.18972    1320.3227     72.27361    62.590783    36.058315    757.23785   -311756.27 
    4600    56.515767    163148.28    72.278432    72.278433    36.060721          120    15964.701    17851.705    -34339.23   -95.753049   -692.43437    1155.1817    72.278432    62.594959    36.060721   -174.27464   -311756.58 
    4650    55.825175    163171.97    72.281931    72.281932    36.062467          120    16005.615    16997.889   -34340.182    287.26292   -288.07117    1464.0921    72.281931    62.597989    36.062467   -445.55926   -311755.81 
    4700    55.713959    163170.42    72.281702    72.281703    36.062352          120    15493.616    17520.229   -34329.487    488.49524   -181.27484    1177.2666    72.281702    62.597791    36.062352   -438.54751   -311758.03 
    4750    55.620037     163147.3    72.278287    72.278288    36.060649          120    16225.395    17804.197   -33938.505   -16.094302     -418.318    1165.7876    72.278287    62.594834    36.060649    30.362394   -311759.95 
    4800    54.580336    163131.74     72.27599    72.275991    36.059502          120    16252.213    17888.463   -33538.897   -81.056416   -524.49374    1283.4105     72.27599    62.592844    36.059502     200.5931   -311760.28 
    4850    53.624525     163132.5    72.276103    72.276103    36.059559          120    16553.996    17954.135   -33495.954    16.430652   -675.70294    1072.7127    72.276103    62.592942    36.059559    337.39223   -311760.63 
    4900    53.922064    163155.36    72.279479     72.27948    36.061243          120    16082.184    17367.412   -33471.056    291.19286   -438.18406     1299.384    72.279479    62.595866    36.061243   -7.1534844   -311761.81 
    4950    53.511662    163172.26    72.281974    72.281975    36.062488          120    15750.554    17263.654    -34286.08    301.16547   -472.68549    1375.4127    72.281974    62.598027    36.062488    -423.9573   -311761.07 
    5000     54.05424    163159.58    72.280102    72.280103    36.061554          120     15663.04    17882.763   -34134.993    65.564184   -461.21147    1131.6002    72.280102    62.596405    36.061554   -196.39636   -311761.39 
    5050     54.95465    163138.77    72.277028    72.277029     36.06002          120    16491.327    17784.951   -33898.918    11.483616   -729.40058    1205.2895    72.277028    62.593743     36.06002    125.78666   -311761.03 
    5100    54.990853    163126.67    72.275242    72.275242    36.059129          120    16248.965    18195.013   -34165.558    66.280215   -54.614143    1574.0025    72.275242    62.592196    36.059129    92.806914   -311758.85 
    5150    55.161041    163118.74    72.274071    72.274071    36.058545          120    16610.512    18345.367   -33774.269    182.24716   -674.27057    717.07281    72.274071    62.591182    36.058545    393.87035   -311757.58 
    5200    56.341624     163124.3    72.274892    72.274892    36.058954          120    16311.474    17937.977   -33621.957   -9.8965938    224.21503    1294.3734    72.274892    62.591893    36.058954    209.16465   -311758.02 
    5250    56.196782    163135.32    72.276519     72.27652    36.059766          120    16009.897    17486.233   -34037.677   -166.29491   -598.18994    975.12232    72.276519    62.593302    36.059766   -180.51541   -311757.39 
    5300    55.820831     163138.3    72.276959     72.27696    36.059986          120    16173.785    18177.788   -33855.545    607.66028    142.15842    862.80746    72.276959    62.593683    36.059986    165.34257   -311757.17 
    5350    55.892586    163143.92    72.277788    72.277789      36.0604          120    15894.878    17675.486    -33838.77    200.79183   -79.143509    881.80163    72.277788    62.594401      36.0604   -89.468859   -311759.26 
    5400    54.762845    163140.81     72.27733    72.277331    36.060171          120    16480.422    17759.489    -33717.09    6.8730183   -112.81284    1075.3173     72.27733    62.594005    36.060171    174.27378   -311759.59 
    5450    54.573838    163141.37    72.277413    72.277414    36.060212          120    16309.156    18192.302   -33771.728    187.58053   -243.63753     1243.752    72.277413    62.594076    36.060212    243.24329   -311761.15 
    5500    53.883456    163151.67    72.278933    72.278933    36.060971          120    15912.901    17726.934   -33812.731    74.987592   -20.577733    1465.9442    72.278933    62.595393    36.060971   -57.632009   -311761.36 
    5550    53.972852    163153.02    72.279133    72.279134     36.06107          120    16155.171     17019.08   -33810.699    -72.95852   -502.74255    1131.2582    72.279133    62.595566     36.06107   -212.14929   -311762.58 
    5600     54.08132    163142.26    72.277544    72.277544    36.060278          120    15901.631    18205.592   -34009.002    478.69462   -264.79256     1397.903    72.277544     62.59419    36.060278    32.740331   -311762.02 
    5650     54.44714    163137.01    72.276769    72.276769    36.059891          120    16260.656    18104.142   -33754.629    263.12877   -195.43087    1153.9062    72.276769    62.593518    36.059891    203.38979   -311761.03 
    5700    54.735747    163150.59    72.278773    72.278774    36.060891          120    16296.441    17758.039   -34524.826   -158.32448   -364.63223    1539.9266    72.278773    62.595255    36.060891   -156.78197   -311759.52 
    5750    55.448087    163166.59    72.281136    72.281137     36.06207          120    16663.275    18095.341   -34112.863    132.39117   -52.304134    1120.6608    72.281136    62.597301     36.06207    215.25093   -311758.31 
    5800    55.990975    163189.01    72.284447    72.284448    36.063722          120     15754.43    17724.052   -33733.143    170.40046   -539.05585     1256.859    72.284447    62.600168    36.063722   -84.887286   -311757.46 
    5850    56.283608    163199.97    72.286065    72.286065    36.064529          120    15643.373    17492.959   -34707.891   -1.9732444    175.63396    1010.1972    72.286065    62.601569    36.064529   -523.85301   -311757.67 
    5900    56.739848    163180.23    72.283151    72.283151    36.063075          120    15838.541    17455.673   -34417.613    274.29058   -196.77863    1342.9583    72.283151    62.599045    36.063075   -374.46628   -311758.81 
    5950    55.615243    163140.26    72.277249     72.27725    36.060131          120    15855.033    17744.335    -33911.19    366.28605   -23.243268    982.30009    72.277249    62.593935    36.060131   -103.94038   -311757.77 
    6000    55.067839    163100.42    72.271364    72.271365    36.057194          120    17019.804    18285.086   -33448.334    392.67117   -543.50913    1295.6531    72.271364    62.588838    36.057194    618.85218    -311759.4 
    6050    54.551476     163094.1    72.270431    72.270432    36.056729          120    16491.198    18452.215   -33760.177    242.79459   -491.03015    1198.8866    72.270431     62.58803    36.056729    394.41182   -311760.13 
    6100    54.223064    163112.16    72.273098    72.273098    36.058059          120    16597.292    17856.951    -33549.46    328.55015   -427.52207    1612.3907    72.273098    62.590339    36.058059    301.59427   -311761.15 
    6150    53.652007    163144.71    72.277905    72.277906    36.060458          120     16338.46     18052.02   -33735.004    256.31487   -288.48082    713.97651    72.277905    62.594503    36.060458    218.49189   -311760.99 
    6200    54.221557    163176.41    72.282586    72.282587    36.062793          120    15632.782    17392.024   -34416.381    257.00438   -431.16971    1656.2002    72.282586    62.598556    36.062793    -463.8586   -311761.96 
    6250    55.171378    163180.37    72.283171    72.283172    36.063085          120    16004.756    17472.391   -34736.951    174.48522     40.40793    1085.5519    72.283171    62.599063    36.063085   -419.93488   -311763.26 
    6300    54.697824    163164.63    72.280848    72.280848    36.061926          120    15698.473    17768.173   -33787.206    503.70316   -381.42674    1151.3886    72.280848    62.597051    36.061926   -106.85346   -311760.55 
    6350    55.773534    163147.96    72.278385    72.278386    36.060698          120    16392.196     18221.52   -33673.253    225.66876   -585.70217    1090.5657    72.278385    62.594919    36.060698    313.48798   -311760.99 
    6400    55.281606    163144.85    72.277927    72.277927    36.060469          120    16172.083        17727   -33970.094    304.89391   -320.45936    1141.7327    72.277927    62.594521    36.060469   -23.670338   -311758.88 
    6450    55.714978    163143.17    72.277679    72.277679    36.060345          120    16232.119    18604.059   -33750.441    237.26946   -918.28926    1621.2784    72.277679    62.594306    36.060345    361.91241    -311758.2 
    6500    55.678484    163162.76    72.280571    72.280571    36.061788          120    15998.014     17149.46   -33920.588    283.90322   -214.15216    1389.5727    72.280571    62.596811    36.061788   -257.70467   -311757.99 
    6550    55.289294    163172.49    72.282008    72.282008    36.062505          120    15782.633    17441.285   -34576.722    264.59755   -525.40464    1488.9523    72.282008    62.598055    36.062505   -450.93473   -311758.19 
    6600    55.415687    163158.82    72.279989     72.27999    36.061498          120    16067.118    17660.378   -33634.461    505.80616   -540.61608    1685.9342    72.279989    62.596307    36.061498    31.011448   -311760.06 
    6650    54.730759    163148.18    72.278418    72.278418    36.060714          120    16290.996    17910.755   -33899.059    361.61263   -308.20977    1220.7798    72.278418    62.594946    36.060714    100.89764   -311760.36 
    6700    54.767858    163151.12    72.278853    72.278853    36.060931          120     16450.67    17799.811   -34213.123    452.25058   -779.16564    1274.4711    72.278853    62.595323    36.060931    12.452684   -311762.18 
    6750    54.500747    163156.37    72.279628    72.279628    36.061317          120    16399.068    17708.427   -34216.548     392.6215    -778.3354    1246.7839    72.279628    62.595994    36.061317   -36.350957   -311763.35 
    6800     54.00976    163172.24    72.281971    72.281972    36.062487          120    16394.872    17941.407   -33830.691    198.80206   -622.22272    1225.7352    72.281971    62.598024    36.062487    168.52928    -311763.4 
    6850    53.677325     163197.3     72.28567    72.285671    36.064332          120     16128.68    17404.454   -33833.511    284.83922   -754.40224    926.36524     72.28567    62.601228    36.064332    -100.1257   -311761.94 
    6900    54.772101    163206.85    72.287081    72.287082    36.065036          120    15890.305     17062.41   -34916.459    214.69753   -272.76173    1710.0618    72.287081    62.602449    36.065036   -654.58132   -311762.62 
    6950     54.66288    163179.85    72.283095    72.283095    36.063047          120    15639.256    18236.959   -34056.432    507.20031   -942.51266    1182.1299    72.283095    62.598997    36.063047   -60.072512   -311761.34 
    7000    55.041867    163153.53    72.279208    72.279208    36.061108          120    16903.225    18365.041   -33224.886    596.08171   -991.36688    1335.7478    72.279208    62.595631    36.061108    681.12676   -311759.44 
    7050     55.44146    163158.99    72.280014    72.280015     36.06151          120    15976.089    18029.963   -33827.981    431.86869   -1068.6705    1343.9019    72.280014    62.596329     36.06151    59.357036   -311758.73 
    7100    56.354367    163163.76    72.280719    72.280719    36.061862          120     15895.57    17508.085   -34017.005     432.6489   -868.99274    1635.3671    72.280719    62.596939    36.061862   -204.45004   -311759.82 
    7150    55.811357    163149.31    72.278585    72.278586    36.060797          120    15855.485     17619.22   -33791.677    704.09591   -900.78819    1636.6561    72.278585    62.595092    36.060797   -105.65722   -311758.79 
    7200    55.801847    163124.26    72.274885    72.274886    36.058951          120    16592.391    18467.085   -33768.222    542.65529   -705.07192    1758.1956    72.274885    62.591887    36.058951    430.41773   -311759.13 
    7250    55.682934    163122.17    72.274577    72.274577    36.058797          120     16907.58    18082.685    -33365.62    271.05165    -435.0767    1603.9289    72.274577     62.59162    36.058797    541.54841   -311760.61 
    7300    55.023926     163150.6    72.278776    72.278777    36.060892          120    16616.287    18126.895   -34063.183    346.32821   -1184.0636    1008.7217    72.278776    62.595257    36.060892    226.66622    -311761.5 
    7350    54.589354    163188.85    72.284424    72.284424     36.06371          120    16212.524    17565.305   -34465.662    367.40518   -599.20618    1592.0352    72.284424    62.600148     36.06371    -229.2778   -311762.71 
    7400     54.70655     163212.8     72.28796    72.287961    36.065475          120    16194.965    17265.533   -34597.968     190.6171    -865.9354     1345.628     72.28796    62.603211    36.065475   -379.15665   -311764.15 
    7450    53.449531    163209.36    72.287452    72.287453    36.065221          120    16200.169    17640.097     -33707.1  -0.18135845   -517.39678      1144.67    72.287452     62.60277    36.065221    44.388523   -311762.91 
    7500    53.659019     163199.2    72.285952    72.285952    36.064472          120    16117.569    18175.004   -33806.647    547.00358   -807.41042    1408.6828    72.285952    62.601471    36.064472    161.97529   -311763.59 
    7550    54.354078    163197.49      72.2857      72.2857    36.064347          120    16210.915    17807.641   -34154.731    206.88075   -422.03005    1490.9415      72.2857    62.601253    36.064347   -45.391646   -311763.65 
    7600    54.730524    163197.17    72.285652    72.285652    36.064323          120    15895.976    17622.462   -35013.856      232.938   -359.04961    1138.0027    72.285652    62.601211    36.064323   -498.47287   -311762.46 
    7650    55.713161     163182.7    72.283515    72.283516    36.063257          120    16256.554     18024.43   -33384.234    288.29596   -309.23725    1246.4816    72.283515    62.599361    36.063257    298.91684   -311762.36 
    7700    56.080113    163183.03    72.283565    72.283565    36.063281          120    16069.664    18097.624    -34079.91    255.82106   -407.17083    1559.7918    72.283565    62.599404    36.063281    29.125623    -311761.1 
    7750    55.956436    163190.54    72.284673    72.284674    36.063835          120    16391.634    17831.728   -33866.359    55.948397   -538.65308    1007.5109    72.284673    62.600364    36.063835    119.00147   -311759.97 
    7800    55.983768    163197.09     72.28564     72.28564    36.064317          120    16058.416    17897.257   -33888.972    282.68004   -496.18772    1503.2535     72.28564    62.601201    36.064317     22.23358   -311759.72 
    7850    56.059978       163200    72.286069     72.28607    36.064531          120    15882.244     17397.61   -34136.384   -23.480954   -385.29996    1188.3462    72.286069    62.601573    36.064531   -285.51039   -311760.91 
    7900    55.226817    163192.57    72.284973    72.284974    36.063984          120    15947.533    17862.451   -33636.589    387.19269   -581.51756    1234.4519    72.284973    62.600624    36.063984    57.798477   -311761.24 
    7950     55.04749     163181.7    72.283367    72.283368    36.063183          120    15775.973    18073.505   -34392.681    495.15087   -854.72269    1506.8262    72.283367    62.599233    36.063183   -181.06772    -311762.1 
    8000     54.39769    163161.67    72.280409     72.28041    36.061707          120    16368.724    18279.218   -33843.325    449.65396   -654.97376    962.71658    72.280409    62.596671    36.061707    268.20573   -311763.27 
    8050    54.317175    163156.25     72.27961    72.279611    36.061309          120    16697.098    18417.202   -33766.782     236.3915   -136.91639    971.99136     72.27961    62.595979    36.061309    449.17243   -311764.41 
    8100    53.768717    163177.68    72.282774    72.282775    36.062887          120     15716.63    17876.589   -33963.723    106.37122   -473.16358    1197.7281    72.282774    62.598719    36.062887   -123.50135   -311763.68 
    8150    54.181019    163196.01     72.28548    72.285481    36.064237          120     16205.11    17718.416   -33961.492   -33.356495   -179.84091    1429.7568     72.28548    62.601063    36.064237   -12.655496   -311764.09 
    8200    54.238549    163206.45    72.287022    72.287023    36.065007          120    15611.428    18006.666   -33862.084    201.25907   -695.00205    1149.7875    72.287022    62.602398    36.065007   -81.330335   -311762.67 
    8250     54.55345    163211.36    72.287747    72.287748    36.065368          120    15909.945    18382.382   -34451.876    295.72595   -709.51602     1287.108    72.287747    62.603026    36.065368   -53.182749   -311761.56 
    8300    55.178874    163215.08    72.288296    72.288297    36.065642          120    16017.722    17948.853   -33893.845    455.52648    -505.7916    1486.5132    72.288296    62.603502    36.065642    24.243433   -311761.33 
    8350    56.006013    163211.88    72.287823    72.287824    36.065406          120    15845.685    17805.737   -34451.817    510.96219   -278.22007    1612.0463    72.287823    62.603092    36.065406   -266.79806   -311761.01 
    8400    56.361553    163190.71    72.284698    72.284699    36.063847          120    15956.347    18035.696   -34571.961    224.88878   -844.98753    1611.6594    72.284698    62.600386    36.063847   -193.30584   -311761.09 
    8450    55.887486     163163.6    72.280696    72.280696     36.06185          120      16414.1    18081.278   -33602.747    193.13632   -379.15623    1232.1961    72.280696    62.596919     36.06185    297.54394   -311760.78 
    8500    55.871109    163156.68    72.279674    72.279674     36.06134          120    16740.824    18423.028   -33168.446    394.68995   -686.00167    1289.8177    72.279674    62.596034     36.06134     665.1354   -311761.58 
    8550     55.12988    163176.95    72.282667    72.282667    36.062833          120    16235.904    18182.151   -33644.068    199.74814   -629.22986    983.29347    72.282667    62.598626    36.062833    257.99586   -311761.51 
    8600    54.687914    163209.22    72.287431    72.287432    36.065211          120    15695.937    17833.575   -33984.308    391.99985   -779.57045    1283.1906    72.287431    62.602753    36.065211   -151.59866   -311762.49 
    8650    54.971747    163230.15    72.290521    72.290521    36.066752          120     15887.57     17654.22   -34422.761     676.9656   -428.54197    1303.4814    72.290521    62.605428    36.066752   -293.65686   -311764.85 
    8700    54.084845    163233.24    72.290977    72.290978     36.06698          120    16471.362    18079.782   -34220.442    720.39873   -1269.8336    843.31494    72.290977    62.605823     36.06698     110.2343   -311764.43 
    8750    53.964638    163226.31    72.289955    72.289955     36.06647          120     15569.47    18067.801   -34091.771    445.94041   -427.64877    1345.1368    72.289955    62.604938     36.06647   -151.49996   -311765.19 
    8800    54.722506    163211.39    72.287752    72.287753    36.065371          120    16306.673    18143.078   -34254.544    61.958229   -414.12933    880.58113    72.287752     62.60303    36.065371    65.069158   -311765.95 
    8850    54.708625    163202.02    72.286368    72.286369     36.06468          120    15883.128     17913.83   -34215.834    289.44404   -546.81111    649.64673    72.286368    62.601832     36.06468   -139.62568   -311765.18 
    8900    54.980868    163186.33    72.284052    72.284053    36.063525          120    16086.713    18078.863   -34203.022    368.37267    -578.6863    1229.2896    72.284052    62.599826    36.063525   -12.482127   -311764.89 
    8950    55.221041    163172.93    72.282072    72.282073    36.062537          120    15518.342    17980.275   -33543.097       124.74   -584.09214    625.27465    72.282072    62.598111    36.062537   -14.826628   -311764.69 
    9000    55.535094    163162.27    72.280498    72.280499    36.061752          120    15987.473     17817.45   -33627.266     86.86074   -904.67668    1214.8486    72.280498    62.596748    36.061752    59.218769   -311763.32 
    9050    55.385395    163156.87    72.279702    72.279702    36.061354          120    16271.726    17889.004   -33618.396    184.74727   -615.10883    505.72139    72.279702    62.596058    36.061354    180.77804   -311762.06 
    9100    55.695595    163161.72    72.280417    72.280418    36.061711          120    16679.391    18609.847   -34120.535    141.46492   -740.28521    767.78012    72.280417    62.596678    36.061711    389.56783   -311762.42 
    9150    55.443132    163185.34    72.283905    72.283905    36.063451          120    16109.702    18039.376   -34039.663     426.3082   -706.61917    1259.1271    72.283905    62.599699    36.063451    36.471703   -311762.46 
    9200    55.754119    163213.08    72.288001    72.288001    36.065495          120    15931.331    18156.848   -33372.691    571.33906   -285.83563    999.78744    72.288001    62.603246    36.065495    238.49611   -311764.37 
    9250     55.01555    163239.45    72.291894    72.291895    36.067437          120    15721.849    17010.808   -35128.066    251.36681   -937.23508    847.96124    72.291894    62.606617    36.067437   -798.46978   -311764.73 
    9300    54.558821    163237.37    72.291587    72.291587    36.067284          120    15966.228    17597.818   -34453.313    175.32812   -881.45842    779.03307    72.291587    62.606351    36.067284   -296.42241   -311765.35 
    9350     54.75326    163217.75    72.288691    72.288691    36.065839          120    15841.009      17967.4   -34248.929    577.95909   -974.22055    628.61021    72.288691    62.603843    36.065839   -146.83975   -311767.17 
    9400    54.609614     163193.8    72.285155    72.285155    36.064075          120    15979.771    18327.259   -33577.012    400.11285   -389.18796    1072.5523    72.285155    62.600781    36.064075    243.33923   -311767.42 
    9450    53.572411    163186.73    72.284111    72.284111    36.063554          120    15989.655    18421.855    -33688.74    518.23936   -658.90425    926.88361    72.284111    62.599877    36.063554    240.92334   -311764.58 
    9500    55.212295    163186.86     72.28413     72.28413    36.063563          120    16444.072    17961.851   -34062.528    959.29455   -834.82752    858.04555     72.28413    62.599893    36.063563    114.46493   -311766.71 
    9550    55.153439    163193.93    72.285173    72.285174    36.064084          120    16673.117    18094.795   -33749.102    329.73095   -622.50226    944.73879    72.285173    62.600797    36.064084    339.60335   -311765.25 
    9600    55.346945    163209.43    72.287462    72.287462    36.065226          120    15818.761    18126.863   -34477.368    511.65734   -653.38802    755.99698    72.287462    62.602779    36.065226   -177.24763   -311763.49 
    9650    55.989667    163216.89    72.288563    72.288564    36.065775          120    16055.514    18163.561    -33929.15    447.51303   -575.95954    912.83893    72.288563    62.603733    36.065775    96.641612   -311763.24 
    9700     55.89594    163220.99    72.289169    72.289169    36.066077          120    16241.607    17775.769   -33854.027    364.09358   -854.10349    694.39094    72.289169    62.604257    36.066077    54.449369   -311762.67 
    9750    55.714559     163223.4    72.289525    72.289525    36.066255          120    15808.891    17451.166   -34197.224    433.34824   -589.16011    814.54967    72.289525    62.604565    36.066255   -312.38894    -311762.9 
    9800    55.722613    163216.06     72.28844    72.288441    36.065714          120    16038.282    18324.831   -34015.118    185.92705   -619.34584     827.6694     72.28844    62.603626    36.065714    115.99863    -311764.4 
    9850     54.99322     163204.9    72.286794    72.286794    36.064893          120    16157.491    17384.821   -34344.876    268.87345   -819.92351    1229.1084    72.286794      62.6022    36.064893   -267.52147   -311765.06 
    9900    54.285697    163187.52    72.284228    72.284228    36.063612          120    16096.575    17624.629    -33506.94    662.14823   -1056.1833    744.48562    72.284228    62.599978    36.063612    71.421452   -311765.62 
    9950    54.495903    163180.61    72.283207    72.283208    36.063103          120    16474.397    18034.519   -33623.999    421.77173   -729.36625    733.16141    72.283207    62.599095    36.063103    294.97236   -311767.06 
   10000    53.636918     163183.8    72.283678    72.283678    36.063338          120    16128.096     18564.54   -33910.235    332.96746   -1020.5816     1125.981    72.283678    62.599502    36.063338    260.80003   -311766.54 
   10050    53.922712    163200.69    72.286171    72.286172    36.064582          120     16161.11    18393.289   -34080.771    351.10935   -711.78394    1039.5712    72.286171    62.601661    36.064582    157.87598   -311766.56 
   10100    54.104432    163223.05    72.289473    72.289474    36.066229          120    15681.112    17666.155   -33958.308    808.59278   -700.74393    949.07969    72.289473    62.604521    36.066229   -203.68025   -311765.61 
   10150    54.628367    163231.54    72.290727    72.290727    36.066855          120    15655.768    17483.742   -34452.593    421.65612   -773.92749    1085.3433    72.290727    62.605606    36.066855   -437.69443   -311764.57 
   10200    55.202804    163215.23    72.288318    72.288319    36.065653          120    16013.818    17982.486   -33642.833    -63.59063   -941.75644    1119.1513    72.288318    62.603521    36.065653    117.82371   -311764.65 
   10250    55.582929    163193.67    72.285135    72.285135    36.064065          120    16151.452    18214.553   -34369.443    481.33833   -805.56117    852.49278    72.285135    62.600763    36.064065   -1.1460659   -311763.75 
   10300    55.453425    163186.28    72.284045    72.284045    36.063521          120    16674.183    18646.839   -33700.552    500.05926   -574.67473    634.89805    72.284045     62.59982    36.063521    540.15661   -311762.48 
   10350    56.251743    163208.79    72.287367    72.287367    36.065178          120    16399.964    18323.153   -33854.377    305.39105     -1009.58    879.02721    72.287367    62.602697    36.065178    289.58006    -311763.7 
   10400    55.843299    163246.52    72.292938    72.292938    36.067958          120    15762.017    17714.825   -33983.293    338.76198   -784.55782    850.37179    72.292938    62.607521    36.067958   -168.81659    -311763.5 
   10450    55.503637    163270.17    72.296429    72.296429    36.069699          120    15606.485    17183.699   -34531.746    603.77657   -994.52925    792.90969    72.296429    62.610544    36.069699    -580.5207   -311763.93 
   10500    54.801314    163255.55     72.29427    72.294271    36.068623          120    15174.127    16943.943   -34902.227    487.88265   -666.99815    823.85161     72.29427    62.608675    36.068623    -928.0524   -311764.43 
   10550     54.61789    163206.03     72.28696    72.286961    36.064976          120        15935    18365.623   -34202.794    544.18097   -993.97607    743.45888     72.28696    62.602345    36.064976    32.609683   -311766.44 
   10600    54.095889    163163.09    72.280619     72.28062    36.061812          120    16452.808    18278.023   -33679.207    59.169818   -699.85408    1194.1551    72.280619    62.596853    36.061812    350.54107    -311766.6 
   10650    54.304588    163144.33     72.27785     72.27785     36.06043          120    16056.403    18341.094   -33493.131    179.32139   -836.00615    625.41777     72.27785    62.594455     36.06043    301.45539   -311767.91 
   10700    54.285782    163154.71    72.279382    72.279383    36.061195          120     17119.41    18320.622   -33526.585     424.5514   -777.71298    720.60394    72.279382    62.595782    36.061195    637.81525   -311767.01 
   10750     54.29894    163198.27    72.285814    72.285815    36.064404          120    16350.537    17610.927   -33654.945    378.25684   -673.02723    861.80604    72.285814    62.601352    36.064404    102.17301   -311766.32 
   10800    54.882585    163235.48    72.291308    72.291309    36.067145          120    15723.898    17678.357    -34346.26    550.57993   -931.86283    458.36785    72.291308     62.60611    36.067145   -314.66833   -311765.37 
   10850     55.03554    163244.88    72.292695    72.292696    36.067837          120    15702.592    18059.589   -34005.994    748.80052   -901.81662     1260.703    72.292695    62.607311    36.067837    -81.27066   -311763.95 
   10900    56.002524    163242.77    72.292384    72.292385    36.067682          120    15905.205    17895.937    -34377.97    296.29784   -712.45882    901.71189    72.292384    62.607042    36.067682   -192.27602   -311763.89 
   10950    56.085655    163229.81    72.290471    72.290471    36.066727          120    15732.474    18293.004   -33956.375    270.30918    -865.5834    970.56642    72.290471    62.605385    36.066727    23.034183    -311763.5 
   11000    55.899111     163213.1    72.288003    72.288004    36.065496          120    15677.416    18140.343   -33948.689    408.71537   -518.03552    773.06138    72.288003    62.603248    36.065496   -43.643554   -311763.03 
   11050     56.11395    163198.73    72.285882    72.285882    36.064438          120    16715.502    18400.731   -33619.826    329.87904   -912.55864    780.10209    72.285882    62.601411    36.064438    498.80241   -311764.87 
   11100    54.281018    163204.12    72.286678    72.286678    36.064835          120    15720.254    17714.464   -33884.302     112.4351   -544.00398    683.26074    72.286678      62.6021    36.064835    -149.8613   -311763.32 
   11150    54.753368    163207.08    72.287115    72.287115    36.065053          120    15941.164     18143.21   -34155.728    248.10951    -799.6485    864.96804    72.287115    62.602478    36.065053   -23.784443   -311765.55 
   11200    54.485805    163209.38    72.287455    72.287456    36.065223          120    16450.079    17946.439   -33931.008    240.00014   -507.82629    562.46031    72.287455    62.602773    36.065223    155.16996   -311766.16 
   11250    54.093523    163213.99    72.288136    72.288136    36.065562          120    16313.355    18098.536    -33834.55    476.29282    -589.1265     736.4718    72.288136    62.603362    36.065562    192.44714   -311766.37 
   11300    54.448093    163224.84    72.289737    72.289737    36.066361          120     16219.74    18101.029   -33782.135    493.55967   -592.89363    442.31296    72.289737    62.604749    36.066361     179.5447   -311766.65 
   11350    54.373388    163240.88    72.292105    72.292106    36.067543          120    16074.329    17691.351   -33806.145     350.7088    -436.4989     511.2296    72.292105      62.6068    36.067543   -13.488245   -311766.15 
   11400    54.905552    163243.04    72.292424    72.292425    36.067702          120    15973.136    17887.553   -34518.982    540.29773   -639.57143    748.35739    72.292424    62.607076    36.067702   -219.43098   -311766.14 
   11450    54.725283    163230.92    72.290634    72.290635    36.066809          120    15848.378    17774.738   -34190.646    324.37411   -992.92789    533.31969    72.290634    62.605526    36.066809   -189.17645   -311764.26 
   11500    55.851712    163208.41    72.287311    72.287312    36.065151          120    15836.453     17812.25   -34277.553    548.83719   -769.30466    1049.2962    72.287311    62.602648    36.065151   -209.61665   -311765.59 
   11550    55.918093    163181.58     72.28335     72.28335    36.063174          120     16569.59    18537.745   -33926.225    109.58345   -664.80921    769.73053     72.28335    62.599218    36.063174    393.70324   -311764.56 
   11600     56.01265    163184.53    72.283785    72.283786    36.063392          120    16269.364    18206.518   -33814.521    489.25177   -915.21194    949.99076    72.283785    62.599595    36.063392    220.45356   -311764.01 
   11650    55.597532     163198.8    72.285893    72.285893    36.064443          120    16051.529    17932.428   -33950.192    565.32695   -705.12546    625.63362    72.285893     62.60142    36.064443    11.255199   -311764.17 
   11700    55.063797    163207.79    72.287219     72.28722    36.065105          120    15543.134    18176.601   -33645.601   -69.582707   -977.03601    785.78898    72.287219    62.602569    36.065105    24.711137   -311763.71 
   11750     54.48169    163214.22    72.288169     72.28817    36.065579          120    15866.072     17976.88   -34504.179    395.91974   -953.23549    626.14381    72.288169    62.603391    36.065579   -220.40873   -311763.67 
   11800    54.229684    163214.95    72.288276    72.288277    36.065632          120    15979.651    18345.795   -34014.058    473.26852   -670.62402    1162.3271    72.288276    62.603484    36.065632    103.79607   -311765.07 
   11850    54.915733    163213.88    72.288119    72.288119    36.065554          120    16073.871    17825.476   -33759.955    615.87525   -660.11855    1004.6213    72.288119    62.603348    36.065554    46.464363   -311767.24 
   11900    53.942223    163209.81    72.287518    72.287519    36.065254          120    16269.288     17717.59   -34175.323    350.34929   -973.96826    1181.1104    72.287518    62.602828    36.065254   -62.815195   -311766.22 
   11950    54.714943    163201.22     72.28625     72.28625    36.064621          120    16002.867    18156.058   -33914.504    714.81324   -488.82688    820.92543     72.28625    62.601729    36.064621    81.473646   -311767.32 
   12000    54.707156    163196.76    72.285592    72.285592    36.064293          120    16331.263     17948.72   -34517.434     531.7429   -613.35151    628.50775    72.285592     62.60116    36.064293   -79.150544   -311766.21 
   12050    55.027593    163199.17    72.285947    72.285948     36.06447          120    16533.813    18020.973   -33620.108    34.511927   -802.07863    312.13514    72.285947    62.601467     36.06447    311.55938   -311765.92 
   12100    54.801608    163213.61     72.28808     72.28808    36.065534          120    15752.058    18120.376   -34336.501    428.04323   -728.35002    884.83607     72.28808    62.603314    36.065534   -154.68903   -311764.11 
   12150    55.611409    163220.28    72.289063    72.289064    36.066025          120    15722.245    17651.242   -34150.624    210.21902   -734.39144    986.79973    72.289063    62.604166    36.066025   -259.04573    -311764.8 
   12200    56.500821    163215.13    72.288303    72.288303    36.065645          120    16281.878     18460.54   -33379.677    302.80564   -887.34045     1192.936    72.288303    62.603507    36.065645    454.24693   -311765.92 
   12250    55.091408    163227.74    72.290164    72.290165    36.066574          120    16011.006    18422.852   -33690.892    240.17478   -924.22624    632.49268    72.290164     62.60512    36.066574    247.65557   -311764.01 
   12300    55.345648    163248.99    72.293303    72.293303     36.06814          120    15444.564    17355.394    -34401.52    372.49559   -663.49091    885.66881    72.293303    62.607837     36.06814   -533.85385    -311765.2 
   12350    54.835362    163244.06    72.292574    72.292575    36.067776          120    15359.951    17102.329   -34767.752    363.50283   -890.38866    713.12655    72.292574    62.607206    36.067776   -768.49085   -311765.89 
   12400      55.1048    163209.37    72.287454    72.287454    36.065222          120    16073.098    18188.897   -33406.608    424.92617   -404.74806    878.06285    72.287454    62.602772    36.065222    285.12907   -311767.86 
   12450    53.994254    163189.46    72.284513    72.284514    36.063755          120     16416.05    18682.138   -33677.725    506.87586    -907.0101    820.52524    72.284513    62.600226    36.063755    473.48751   -311767.01 
   12500    54.112274    163197.94    72.285766    72.285766     36.06438          120    16453.741    18531.175   -33555.359     332.4642   -548.46347    954.64057    72.285766     62.60131     36.06438    476.51908   -311767.72 
   12550    54.070497    163235.65    72.291332    72.291333    36.067157          120    15500.782    17948.918   -34619.914    18.433056   -780.13323    732.18742    72.291332    62.606131    36.067157    -390.0712   -311767.08 
   12600    54.186144    163263.06    72.295379    72.295379    36.069176          120      15668.5    17796.071   -34558.363    730.43092    -1128.582    923.96858    72.295379    62.609635    36.069176   -364.59736   -311766.34 
   12650    55.067705    163258.45    72.294698    72.294698    36.068836          120    16023.926    17979.167   -34068.913    511.49462     -423.661    605.69152    72.294698    62.609046    36.068836   -21.939769   -311766.44 
   12700    55.554955    163239.53    72.291906    72.291906    36.067443          120    16102.891    17993.537   -33728.316     146.3246   -865.45205    577.66201    72.291906    62.606628    36.067443    122.70412   -311766.26 
   12750    55.526104    163221.81     72.28929    72.289291    36.066138          120    16137.354    18553.559   -33605.841    115.83175   -384.12532    662.93696     72.28929    62.604362    36.066138    361.69078    -311764.6 
   12800    55.889311    163215.31     72.28833     72.28833    36.065659          120    16017.787     17625.13   -34467.891    51.608468   -850.14043    1320.1647     72.28833    62.603531    36.065659   -274.99169   -311764.75 
   12850    56.037845    163207.66      72.2872    72.287201    36.065095          120    16065.669    18145.683   -33487.663     106.5999   -1048.3381     938.7693      72.2872    62.602552    36.065095    241.22962   -311765.33 
   12900    55.317004    163203.48    72.286583    72.286584    36.064788          120    15993.867    18239.366   -34105.627    453.50729   -701.82898    768.38433    72.286583    62.602018    36.064788     42.53523   -311764.83 
   12950    55.412649    163212.63    72.287935    72.287936    36.065462          120    16112.033    18421.406   -34151.368    310.10039   -942.64028    918.74855    72.287935    62.603189    36.065462    127.35691   -311766.26 
   13000    54.729209    163238.85    72.291806    72.291806    36.067393          120    16794.938    18685.144   -33484.739    368.75071   -489.81868    772.72728    72.291806    62.606541    36.067393    665.11451   -311765.99 
   13050    54.551845    163278.88    72.297714    72.297714    36.070341          120    15158.575    17681.018   -34814.172    90.155705   -750.32457    996.22699    72.297714    62.611657    36.070341    -658.1928   -311766.83 
   13100    54.450256    163281.64    72.298121    72.298121    36.070544          120    15856.396    17083.952   -34624.268    233.44973    -909.6576    790.37615    72.298121     62.61201    36.070544   -561.30663   -311767.63 
   13150    54.470126    163246.41    72.292922    72.292922     36.06795          120    15643.189    16753.777   -34648.692    414.15069   -478.66548    866.72891    72.292922    62.607507     36.06795    -750.5749   -311768.38 
   13200    54.277519     163181.8    72.283383    72.283383    36.063191          120    16070.055    18760.649   -33305.113    262.93238   -1014.5781    604.66314    72.283383    62.599246    36.063191    508.53008   -311767.26 
   13250    54.628252    163147.08    72.278256    72.278256    36.060633          120    16391.259    19556.738   -32779.236    119.36722   -503.04353    1171.4998    72.278256    62.594806    36.060633    1056.2537   -311767.29 
   13300    55.265432    163176.74    72.282636    72.282637    36.062818          120    16650.414    18454.236    -33693.99    311.99113    -534.5112    920.74226    72.282636      62.5986    36.062818    470.22002   -311767.06 
   13350    55.110665    163239.26    72.291866    72.291866    36.067423          120    15696.292     17481.45   -34686.429    673.75587    -966.4992    829.93319    72.291866    62.606593    36.067423   -502.89536   -311765.19 
   13400     55.31612    163277.45    72.297502    72.297503    36.070235          120    15310.619    17315.915   -34557.466    348.31219   -551.65881      715.857    72.297502    62.611474    36.070235   -643.64433   -311763.96 
   13450     55.67304    163271.06     72.29656    72.296561    36.069765          120    16168.015    17490.342   -34193.401    442.40731   -978.14044    1008.5294     72.29656    62.610659    36.069765   -178.34822   -311763.55 
   13500    55.730357    163243.06    72.292427    72.292427    36.067703          120    16059.568    17827.299   -33809.683    305.06392   -453.08202    399.70686    72.292427    62.607079    36.067703    25.727813   -311764.78 
   13550    55.323601    163219.61    72.288965    72.288965    36.065976          120    15979.349    18450.103   -34036.647    286.61338   -859.38267    1030.8042    72.288965     62.60408    36.065976    130.93493   -311764.66 
   13600    55.105293    163213.22    72.288021    72.288022    36.065505          120    16058.503    18565.214   -34096.446    461.54021   -982.62287     429.4893    72.288021    62.603263    36.065505    175.75689   -311765.77 
   13650    55.138968    163224.79     72.28973     72.28973    36.066357          120    15631.704    18079.193   -33633.054     352.4259   -822.75178     640.7715     72.28973    62.604743    36.066357    25.947692   -311767.52 
   13700    54.208339    163242.29    72.292313    72.292314    36.067646          120     15912.29    17317.209   -33926.309    328.62334   -464.93943    730.21987    72.292313     62.60698    36.067646   -232.26988    -311766.9 
   13750    54.712629    163243.98    72.292562    72.292563     36.06777          120    15378.167    17772.572   -34626.459    297.40498   -676.06875    1049.6544    72.292562    62.607196     36.06777   -491.90668   -311768.73 
   13800    54.590052       163221     72.28917    72.289171    36.066078          120    16100.138    18597.241   -34025.519    187.09744   -513.93688    1043.1886     72.28917    62.604258    36.066078    223.95324   -311767.79 
   13850    54.427357    163209.82     72.28752     72.28752    36.065255          120     16322.45    18433.998   -33826.638    276.24785   -1036.6339    751.82475     72.28752    62.602829    36.065255    309.93672   -311767.27 
   13900    55.036207    163219.44     72.28894    72.288941    36.065963          120    15727.956    18138.802   -34084.976    181.27563   -711.50866     781.6675     72.28894    62.604059    36.065963   -72.739284   -311767.18 
   13950    55.118657    163227.78    72.290171    72.290172    36.066578          120    15215.769    17914.982   -34632.316    485.59593   -565.32526    692.17304    72.290171    62.605126    36.066578   -500.52154    -311765.8 
   14000    55.454325    163214.11    72.288153    72.288153    36.065571          120    15975.131    18406.238   -33756.469    86.168796   -584.03364    1008.5779    72.288153    62.603377    36.065571    208.29966   -311764.91 
   14050     56.08097    163211.26    72.287733    72.287733    36.065361          120    16085.613    17910.089   -33613.661    770.03934   -732.51731    776.86039    72.287733    62.603014    36.065361      127.347   -311765.68 
   14100    55.505217    163223.72    72.289572    72.289572    36.066279          120    15822.959    17917.967   -34140.381    352.93327   -624.80718    675.35132    72.289572    62.604606    36.066279   -133.15163   -311764.24 
   14150    55.853315    163237.64    72.291626    72.291627    36.067303          120    15926.698    18017.947   -33795.736    247.35555   -1068.1336    820.25617    72.291626    62.606385    36.067303    49.636181   -311765.36 
   14200    55.133149    163252.98    72.293891    72.293891    36.068433          120    15597.315    18381.437   -34072.588    114.28155   -568.41113    632.49026    72.293891    62.608347    36.068433   -31.278794      -311765 
   14250    55.018035    163257.16    72.294507    72.294508    36.068741          120    15669.895    17758.767   -34194.246    349.00085   -531.87719    978.70707    72.294507    62.608881    36.068741   -255.19457   -311766.26 
   14300    54.934416    163246.37    72.292915    72.292916    36.067947          120    15735.565    18327.676   -34058.617    425.83379   -1223.8705    960.75672    72.292915    62.607502    36.067947    1.5413526   -311767.87 
   14350     54.48715    163231.81    72.290767    72.290767    36.066875          120    15930.136    18089.378   -34077.686     163.7343   -810.86092    667.22414    72.290767    62.605641    36.066875   -19.390575   -311768.03 
   14400    54.084495     163213.8    72.288108    72.288108    36.065548          120    15907.373    18555.461   -33684.275    308.22949   -637.90684    636.71481    72.288108    62.603338    36.065548    259.51966   -311767.59 
   14450    54.118141    163205.15    72.286831    72.286831    36.064911          120    16162.245    18417.581   -34084.835    426.95282   -884.63141     642.2204    72.286831    62.602232    36.064911    164.99672   -311767.62 
   14500    54.616121    163215.44    72.288349     72.28835    36.065669          120    16393.292    18310.453   -33714.501    659.15483   -633.24107     1025.878    72.288349    62.603547    36.065669     329.7482   -311767.61 
   14550      55.0666    163239.67    72.291927    72.291928    36.067454          120    15877.905    17588.373   -34363.705    897.90334   -558.27871    402.13129    72.291927    62.606646    36.067454   -299.14263   -311766.98 
   14600     55.56319    163247.47    72.293077    72.293078    36.068028          120    15603.566    17813.147   -34571.301    43.381401   -509.47785    1118.0148    72.293077    62.607642    36.068028   -384.86244   -311766.51 
   14650     55.67565    163237.77    72.291647    72.291647    36.067314          120    16378.067    18165.924   -33370.433    7.2849702   -825.98277    565.40538    72.291647    62.606403    36.067314    391.18581    -311765.3 
   14700    55.672167    163240.04     72.29198    72.291981     36.06748          120    15787.284    17926.718   -33963.196    280.08826   -357.63777     888.6521     72.29198    62.606692     36.06748   -83.064663   -311764.38 
   14750    56.443362    163246.53    72.292938    72.292939    36.067958          120    16209.827    17983.105   -33572.429    148.54116   -824.98169    656.93823    72.292938    62.607522    36.067958    206.83425   -311766.49 
   14800    55.219238    163256.71    72.294441    72.294442    36.068708          120    15601.069    17872.909   -34239.319    462.93354   -594.43355    1042.0364    72.294441    62.608823    36.068708   -255.11359    -311764.6 
   14850    55.155606    163248.13    72.293175    72.293175    36.068076          120    15698.478    18490.565   -34595.934     431.9124    -926.3943    696.07575    72.293175    62.607726    36.068076   -135.63053   -311765.77 
   14900     54.76088    163225.34    72.289812    72.289812    36.066398          120    16396.365    18368.105   -33700.665    288.76803   -683.05069    905.33935    72.289812    62.604814    36.066398    354.60164   -311766.85 
   14950    54.136391    163215.44     72.28835    72.288351    36.065669          120    16111.321    18092.907   -34168.298    365.95048    -754.7527    748.34695     72.28835    62.603548    36.065669    11.976581   -311766.74 
   15000    54.443324     163210.7     72.28765     72.28765     36.06532          120    15953.026    17994.861    -33884.99    553.30559   -891.22498    964.39056     72.28765    62.602942     36.06532    20.965725   -311767.96 
   15050    54.238145    163204.32    72.286708    72.286708     36.06485          120    15865.505    18326.471   -33997.974    301.21528   -870.97273     302.3322    72.286708    62.602126     36.06485    64.667301   -311768.22 
   15100    54.427669    163197.27    72.285667    72.285667     36.06433          120    15993.578    18371.981   -34053.037    204.23574   -955.03723    1108.1501    72.285667    62.601224     36.06433    104.17416   -311768.05 
   15150    54.346086     163200.4    72.286129    72.286129    36.064561          120    16494.154    18063.092   -33286.136    460.37677   -626.13233     384.1862    72.286129    62.601624    36.064561    423.70317   -311766.21 
   15200    55.379966    163222.14    72.289338    72.289339    36.066162          120    15746.155    18201.695   -34111.252    497.78763   -1414.2014    848.14605    72.289338    62.604404    36.066162   -54.467545   -311766.54 
   15250    55.582649    163246.23    72.292894    72.292895    36.067936          120    15735.269    18281.294   -34225.684    563.69609    -671.6925    681.61642    72.292894    62.607483    36.067936   -69.707092   -311765.76 
   15300    55.919193    163259.52    72.294856    72.294857    36.068915          120    15804.423    18165.101   -34253.141    256.33516   -951.33132     813.6765    72.294856    62.609183    36.068915   -94.539372   -311765.35 
   15350    55.911121    163260.83     72.29505     72.29505    36.069012          120    15885.344    18117.299   -33682.253    280.48414   -844.70249    949.73018     72.29505     62.60935    36.069012    106.79653   -311765.21 
   15400    55.565293     163256.2    72.294367    72.294367    36.068671          120    15605.745    18062.574   -34340.957    334.01885   -763.15979    635.06458    72.294367    62.608759    36.068671   -224.21285   -311765.04 
   15450    55.935728    163240.27    72.292015    72.292016    36.067497          120    16095.885    18862.587    -33815.99    450.84476   -627.51907    334.78938    72.292015    62.606722    36.067497    380.82739    -311766.8 
   15500    54.737217    163233.37    72.290996    72.290996    36.066989          120    16047.288    18002.638   -34135.555    385.06754   -850.17414    863.64618    72.290996    62.605839    36.066989   -28.543083   -311765.96 
   15550    54.286722    163221.09    72.289184    72.289184    36.066085          120    15081.986    18588.947   -34043.881    189.93487   -787.76927    950.03735    72.289184     62.60427    36.066085   -124.31611   -311766.45 
   15600    54.544948    163195.14    72.285352    72.285353    36.064173          120    15947.695    18518.257   -33790.963     737.6319   -777.53008    524.95386    72.285352    62.600952    36.064173     224.9961   -311768.15 
   15650    54.538164    163182.54    72.283491    72.283492    36.063245          120    16639.492    18724.123   -33637.625    700.42888   -835.61912    1178.8567    72.283491    62.599341    36.063245    575.33002   -311768.34 
   15700    54.642796    163212.29    72.287885    72.287885    36.065437          120    16186.761    17817.933   -34100.457    153.78472   -870.23641    521.44465    72.287885    62.603145    36.065437   -31.921151   -311768.23 
   15750    54.507895    163254.58    72.294128    72.294128    36.068552          120    15677.737    17719.771   -34402.353    336.28706   -772.56305    611.28136    72.294128    62.608552    36.068552   -334.94815   -311767.03 
   15800    55.151649    163278.12    72.297602    72.297603    36.070285          120    15777.496    17650.211   -34691.652    321.04472   -812.75841    258.94193    72.297602    62.611561    36.070285   -421.31514    -311767.2 
   15850    54.765956    163273.73    72.296954    72.296955    36.069962          120    15428.413    17610.707   -34608.203    352.48169    -1120.885    771.36832    72.296954       62.611    36.069962   -523.02762   -311765.07 
   15900    55.700447    163249.21    72.293334    72.293335    36.068156          120    15828.896     17933.17    -34072.74    305.55759   -832.82204    675.78636    72.293334    62.607865    36.068156   -103.55813   -311765.73 
   15950    55.729496    163231.99    72.290792    72.290793    36.066887          120    15999.154    18504.161    -34104.54    509.89811   -944.54394    849.52424    72.290792    62.605663    36.066887    132.92501   -311765.05 
   16000    55.778425    163221.77    72.289283    72.289284    36.066135          120    16524.407    18392.432   -33648.222     323.8255   -638.72812    1164.5817    72.289283    62.604356    36.066135    422.87224   -311765.39 
   16050    55.173361    163222.39    72.289375    72.289376     36.06618          120     16127.28    18245.491   -34049.978     529.6137   -678.53336    745.73242    72.289375    62.604436     36.06618    107.59771   -311764.99 
   16100    55.262821    163223.88    72.289596    72.289596     36.06629          120    15859.314    18027.907   -34032.507    357.09156   -479.15282    1080.1207    72.289596    62.604627     36.06629    -48.42872   -311766.22 
   16150    54.892734    163215.79    72.288401    72.288402    36.065695          120     16144.32    18255.444   -33559.172    381.28244   -957.65875    974.53733    72.288401    62.603593    36.065695    280.19723   -311766.64 
   16200    54.936148    163219.49    72.288947    72.288947    36.065967          120     15473.93    18118.977    -34117.72    283.52976   -576.55428    838.60703    72.288947    62.604065    36.065967   -174.93742   -311768.27 
   16250    53.905593    163230.55     72.29058     72.29058    36.066781          120    15778.537    18117.174    -34087.71    368.54285   -1010.6623    444.82152     72.29058    62.605479    36.066781   -63.999759   -311766.89 
   16300    54.299208    163237.54    72.291612    72.291612    36.067296          120      15811.7    17994.511   -34802.714    315.67393   -387.68815    829.06403    72.291612    62.606373    36.067296   -332.16777   -311767.52 
   16350    53.953496    163235.91    72.291371    72.291372    36.067176          120    15918.998    18086.466   -33910.293    456.79293   -1148.0707    691.78899    72.291371    62.606165    36.067176    31.723868   -311766.82 
   16400    54.878474     163237.5    72.291607    72.291607    36.067294          120    16037.821    18146.627   -33925.242    201.27763   -352.51611    699.97948    72.291607    62.606368    36.067294    86.401719   -311767.63 
   16450    55.352337    163245.49    72.292785    72.292786    36.067882          120    16030.789    18588.172   -33907.369    512.02267   -1080.2734    279.58744    72.292785    62.607389    36.067882    237.19741      -311767 
   16500    55.204566    163261.82    72.295196    72.295196    36.069084          120    15497.368    17915.512   -33907.233    531.22668   -896.47127    950.54198    72.295196    62.609477    36.069084   -164.78433   -311765.57 
   16550    55.537271    163265.03     72.29567     72.29567    36.069321          120    15711.295    17551.589   -33924.297    2.9391877   -558.30495    658.35263     72.29567    62.609887    36.069321    -220.4709   -311765.03 
   16600     56.08859     163255.1    72.294204    72.294204    36.068589          120    15637.291    17946.841   -34184.236    294.03359   -1044.2698    889.44706    72.294204    62.608618    36.068589   -200.03462   -311765.89 
   16650    55.825395    163227.37    72.290111    72.290112    36.066548          120    15837.212    18246.459   -34168.627    245.64389   -558.72904    721.87369    72.290111    62.605073    36.066548   -28.318691    -311766.3 
   16700    55.520345    163198.96    72.285916    72.285916    36.064455          120    16427.462    18369.271   -33455.516    196.33252   -852.73318    752.29225    72.285916     62.60144    36.064455    447.07238   -311765.89 
   16750    55.123599    163205.39    72.286865    72.286866    36.064928          120    16162.622    19153.552   -33719.692    151.51374   -711.87638    907.80055    72.286865    62.602262    36.064928    532.16059   -311766.45 
   16800     55.18356    163238.01    72.291682    72.291682    36.067331          120    15438.326    17989.701   -34355.496    465.55149   -1030.2427    546.56042    72.291682    62.606434    36.067331   -309.15618   -311767.74 
   16850    54.538707    163252.03    72.293751    72.293751    36.068363          120      15771.1    17743.951   -33877.983    120.05593   -950.53666    1054.8866    72.293751    62.608225    36.068363   -120.97723   -311767.61 
   16900    54.671624    163253.62    72.293985    72.293986     36.06848          120    15503.208    17977.307   -33999.183    399.65031   -808.42345    852.79106    72.293985    62.608428     36.06848   -172.88935   -311768.48 
   16950    54.425037    163246.37    72.292916    72.292916    36.067947          120    15573.439    18241.661   -34371.573    314.49148    -797.3022    940.64789    72.292916    62.607502    36.067947   -185.49105   -311767.67 
   17000    54.664901    163222.49     72.28939     72.28939    36.066188          120    16148.715      18094.4    -33695.24    458.19742   -702.59437     760.2086     72.28939    62.604449    36.066188    182.62508   -311767.72 
   17050    54.834119    163199.12     72.28594    72.285941    36.064467          120    16137.551    18677.651   -33513.637    120.52571   -997.85375    933.97982     72.28594    62.601461    36.064467    433.85519   -311766.69 
   17100    55.061722    163201.55    72.286298    72.286299    36.064645          120    16128.935    18634.094   -33686.746    267.32767   -906.36485    888.39763    72.286298    62.601771    36.064645    358.76106   -311765.94 
   17150    55.527768    163227.29    72.290099      72.2901    36.066542          120    16008.372    18079.642   -33854.621    67.980042   -1008.5967    782.15784    72.290099    62.605063    36.066542    77.797712   -311766.25 
   17200    55.733601    163255.99    72.294335    72.294335    36.068655          120    15684.989    17878.413   -34586.116     139.5843   -1201.3398    483.73609    72.294335    62.608731    36.068655   -340.90482   -311765.64 
   17250     56.10293     163267.9    72.296094    72.296094    36.069532          120    16044.164    17885.712   -33682.747    210.90399   -906.58332    888.51662    72.296094    62.610254    36.069532    82.376343   -311766.18 
   17300    55.779645    163268.94    72.296248    72.296248    36.069609          120    15622.703    17511.188   -34614.322    132.59969   -804.88408    745.88692    72.296248    62.610388    36.069609   -493.47696   -311766.87 
   17350     55.03496    163252.03    72.293751    72.293752    36.068364          120    15635.969    17837.436   -34221.124    371.27425   -926.16521     699.5845    72.293751    62.608226    36.068364   -249.23931   -311766.71 
   17400     54.90844    163236.46    72.291453    72.291453    36.067217          120    16537.232    17705.023   -33959.409     374.5496   -641.36769    612.24518    72.291453    62.606235    36.067217    94.282059   -311768.15 
   17450    54.528789    163233.17    72.290967    72.290968    36.066975          120    16259.578     17996.13   -33809.026    414.43161   -1051.8191    234.81197    72.290967    62.605815    36.066975    148.89418   -311768.92 
   17500     54.66121     163237.8     72.29165     72.29165    36.067315          120    16226.834    18571.986    -33800.95    254.38429   -582.55153    537.45435     72.29165    62.606406    36.067315    332.62318   -311770.14 
   17550    53.985973    163255.29    72.294232    72.294233    36.068604          120    16096.701    17952.316   -34146.552    331.93519   -945.74698    679.25234    72.294232    62.608642    36.068604   -32.511926   -311768.82 
   17600    54.144394    163273.87    72.296974    72.296975    36.069972          120    15444.627     17238.27   -34427.393    370.59371   -991.09624    711.09026    72.296974    62.611017    36.069972   -581.49862   -311768.48 
   17650    54.721255    163266.27    72.295853    72.295854    36.069412          120    15806.413    17386.575   -34540.758    175.11958   -978.24273    1087.8019    72.295853    62.610046    36.069412   -449.25624   -311768.64 
   17700    55.446783    163242.69    72.292372    72.292373    36.067676          120    16108.773    17871.305   -33631.219    551.62986    -1055.489    780.22038    72.292372    62.607032    36.067676    116.28618   -311767.81 
   17750     55.70148    163226.25    72.289946    72.289946    36.066465          120    15977.254    17838.144   -34238.369    334.61608   -854.88412    494.20622    72.289946     62.60493    36.066465   -140.99027   -311766.41 
   17800    56.286623    163215.76    72.288396    72.288397    36.065692          120    16201.669    18276.552   -33994.101    397.87978   -884.28058    1083.3295    72.288396    62.603588    36.065692    161.37317   -311767.39 
   17850    55.989408     163218.4    72.288786    72.288786    36.065886          120    16633.186    18597.178   -33401.719    78.669706   -618.19312    415.34302    72.288786    62.603926    36.065886    609.54856   -311765.95 
   17900    55.168985     163247.6    72.293097    72.293097    36.068037          120    15605.101     18158.01   -33989.026    273.72625   -1127.1136    996.00969    72.293097    62.607659    36.068037   -75.305108   -311765.07 
   17950    55.177435    163271.56    72.296634    72.296634    36.069802          120     15327.77    17641.074   -34221.645    137.77592   -836.72094     370.9114    72.296634    62.610722    36.069802   -417.60008    -311766.2 
   18000    55.202006    163267.21    72.295992    72.295993    36.069482          120    15693.842    17642.795   -34751.875    90.314017   -729.91202    791.06715    72.295992    62.610166    36.069482   -471.74615   -311767.41 
   18050    54.924547    163244.72    72.292672    72.292672    36.067825          120    16272.801    18499.608   -33427.124    288.62274   -814.85066     567.9249    72.292672    62.607291    36.067825    448.42838   -311769.03 
   18100    54.572766    163241.08    72.292135    72.292136    36.067557          120    16095.558    17875.411   -33637.227     197.4887   -820.59376    1028.4936    72.292135    62.606826    36.067557    111.24717    -311769.4 
   18150    54.705102     163238.6    72.291769     72.29177    36.067375          120    16028.534    17780.715    -34249.72    186.38076   -748.16848    491.53933    72.291769    62.606509    36.067375   -146.82411   -311770.05 
   18200    54.136754    163223.65    72.289561    72.289561    36.066273          120    16646.934     18221.95   -33212.038    271.40356   -735.60842    508.94386    72.289561    62.604597    36.066273    552.28192   -311768.76 
   18250    54.284593    163222.21    72.289349    72.289349    36.066167          120    15764.806    18164.102    -33963.57    254.80944   -999.61787    1134.2712    72.289349    62.604413    36.066167   -11.553837   -311768.53 
   18300    55.186732    163225.38    72.289816    72.289817    36.066401          120    16040.592    18155.005   -33022.345    -308.4872   -790.20592    991.63145    72.289816    62.604818    36.066401    391.08401   -311768.96 
   18350    55.186885    163242.26    72.292308    72.292309    36.067644          120    16161.522    18595.824   -33310.262    326.22687   -544.38158    1024.7855    72.292308    62.606976    36.067644    482.36115   -311766.52 
   18400      56.2271    163271.07    72.296561    72.296561    36.069765          120    15999.282    18252.796   -34018.288    87.314785   -890.69333    608.05125    72.296561    62.610659    36.069765     77.93019   -311767.09 
   18450     55.54114    163293.54    72.299877    72.299878     36.07142          120    15899.333    17553.504   -34856.679    37.704423   -1221.9857    425.70352    72.299877    62.613531     36.07142   -467.94767   -311764.93 
   18500    55.935465    163292.64    72.299744    72.299745    36.071354          120    15756.631    17958.046   -34427.441     215.9062   -920.53335    694.93273    72.299744    62.613416    36.071354   -237.58774   -311765.38 
   18550    55.802125    163275.25    72.297178    72.297179    36.070073          120    15217.294    18251.026   -34437.902    286.45248   -921.30047    860.89558    72.297178    62.611194    36.070073   -323.19417   -311766.04 
   18600    54.919716    163242.68     72.29237    72.292371    36.067675          120    15640.389    17486.832   -34130.523     270.8183   -668.92419    318.84414     72.29237     62.60703    36.067675   -334.43409   -311765.88 
   18650    54.836803    163210.86    72.287673    72.287674    36.065331          120    16353.988    18663.882   -33253.089    199.82647   -778.34506    663.72076    72.287673    62.602962    36.065331    588.26037    -311767.7 
   18700    53.997866    163202.98     72.28651     72.28651    36.064751          120    15653.106    18185.738   -34327.512    85.502352   -549.94623    412.05849     72.28651    62.601954    36.064751   -162.88895   -311767.98 
   18750    54.217001    163202.69    72.286467    72.286468     36.06473          120    16290.406    18199.361   -33355.536    482.30095   -1213.4673    450.33297    72.286467    62.601918     36.06473    378.07679   -311768.94 
   18800    54.161876    163226.07    72.289919    72.289919    36.066452          120    16431.982    18433.509   -33271.364   -74.893505   -1117.7379    633.66509    72.289919    62.604907    36.066452    531.37572   -311769.13 
   18850    53.838515    163269.43     72.29632     72.29632    36.069645          120    15762.985    17681.031   -34277.655    44.712497    -742.1484    735.48162     72.29632     62.61045    36.069645   -277.87965   -311768.01 
   18900    54.527101    163294.65    72.300041    72.300042    36.071502          120    15371.922    17794.038   -34736.743    198.35807   -798.36209     517.8242    72.300041    62.613673    36.071502    -523.5942   -311767.94 
   18950    54.971543     163288.6    72.299149     72.29915    36.071057          120    15877.772    17457.522   -34138.519    286.11891    -778.6492    816.18706    72.299149    62.612901    36.071057   -267.74169   -311767.46 
   19000    55.132212    163254.31    72.294087    72.294088    36.068531          120    16071.551    17822.417   -33998.977    383.50442   -630.71503    445.77411    72.294087    62.608517    36.068531   -35.003204   -311766.48 
   19050    55.816438    163213.75      72.2881      72.2881    36.065544          120     16469.41    18024.683   -33505.973     319.6966   -1250.1872    1154.0343      72.2881    62.603331    36.065544    329.37333   -311766.39 
   19100    55.977324    163202.28    72.286406    72.286407    36.064699          120    16636.794    18102.102   -33443.257    424.16255    -1087.459    624.77653    72.286406    62.601865    36.064699    431.87971   -311766.26 
   19150    55.567477    163213.94    72.288128    72.288129    36.065558          120    15804.803    17888.131    -34151.35    194.66905   -811.68569    762.31662    72.288128    62.603356    36.065558   -152.80534   -311765.65 
   19200    55.803118    163225.67    72.289859     72.28986    36.066422          120    15995.855    18209.132    -33496.79    375.95956   -917.96723    413.92017    72.289859    62.604855    36.066422    236.06561   -311767.02 
   19250    55.396843    163248.53    72.293234    72.293234    36.068106          120    16384.738    18359.587   -33697.833    161.54851   -742.12732    531.80856    72.293234    62.607778    36.068106    348.83066   -311767.22 
   19300    55.084121    163283.21    72.298353    72.298354     36.07066          120    15911.061    17520.737   -34142.798    499.06394   -1063.6745    599.05533    72.298353    62.612211     36.07066   -236.99987   -311768.11 
   19350    54.400588    163311.54    72.302534    72.302535    36.072746          120    15461.464    17313.564    -34898.99    700.27543   -985.87913    481.75956    72.302534    62.615832    36.072746   -707.98717   -311768.04 
   19400    54.194082    163304.23    72.301456    72.301457    36.072208          120    15363.621     17471.76   -34475.865    140.10198   -1132.9815    422.70315    72.301456    62.614898    36.072208   -546.82818   -311768.35 
   19450    53.486332    163264.26    72.295557    72.295557    36.069264          120    16004.749    18226.436   -34637.384    150.47947      -902.02    549.04181    72.295557    62.609789    36.069264   -135.39964   -311767.67 
   19500    54.381887    163224.26    72.289651    72.289651    36.066318          120    16530.488    18315.803   -33531.605    598.38243   -892.62489    685.91639    72.289651    62.604675    36.066318    438.22864   -311768.41 
   19550    54.494839    163211.62    72.287786    72.287786    36.065387          120    16353.763    18144.059   -34068.716    649.13602   -905.10353    491.82035    72.287786    62.603059    36.065387    143.03541   -311768.37 
   19600    54.771477    163213.21    72.288021    72.288021    36.065505          120    15934.416    17860.706   -33409.821    427.83301   -804.23535    563.34405    72.288021    62.603263    36.065505    128.43346   -311766.85 
   19650     55.92528    163218.46    72.288795    72.288795    36.065891          120    16163.695    17948.107   -33635.592   -113.17833   -1019.8056    815.75237    72.288795    62.603933    36.065891    158.73663   -311767.89 
   19700    55.478484    163233.85    72.291068    72.291068    36.067025          120    16204.353    18226.905    -33466.16    442.00824   -1157.5914    878.80332    72.291068    62.605902    36.067025    321.69942   -311766.02 
   19750    55.579205     163266.4    72.295872    72.295872    36.069422          120    15843.641    17382.579   -34365.647    316.60103   -983.23093    704.07378    72.295872    62.610062    36.069422   -379.80883   -311765.42 
   19800    55.801288    163281.54    72.298106    72.298107    36.070537          120     15493.59    17310.396   -34782.917    284.60621   -824.54878    783.90049    72.298106    62.611997    36.070537   -659.64396      -311766 
   19850    55.098867    163265.11    72.295681    72.295681    36.069326          120    15460.299    17531.843   -34518.689    386.45458   -724.38135    624.64249    72.295681    62.609897    36.069326   -508.84913   -311766.09 
   19900    55.066093    163234.21    72.291121    72.291121    36.067051          120    16314.567    18223.985   -33945.175    446.54549   -420.70945    924.94803    72.291121    62.605948    36.067051     197.7922   -311767.45 
   19950     54.63966    163222.21    72.289349    72.289349    36.066167          120    16722.921    18523.285   -33605.368    618.70029   -902.64095    821.39939    72.289349    62.604413    36.066167    546.94594   -311767.71 
   20000    54.163042    163241.54    72.292202    72.292203    36.067591          120    15817.399    18462.538   -33804.456    320.73927   -288.40323     642.4825    72.292202    62.606884    36.067591     158.4934   -311768.18 
   20050    54.190195    163266.85    72.295938    72.295938    36.069455          120      15776.4    17695.226   -34188.573    135.07017   -1208.7845     745.6596    72.295938    62.610119    36.069455   -238.98226   -311768.43 
   20100    53.870616    163273.21    72.296876    72.296877    36.069923          120     15282.66    17525.955    -34305.22    302.00751   -907.55162    436.61403    72.296876    62.610932    36.069923   -498.86816   -311768.44 
   20150    54.690174    163247.71    72.293113    72.293114    36.068045          120    15691.171    17848.039   -33931.642    228.17259   -959.47768    625.24654    72.293113    62.607673    36.068045   -130.81069   -311768.82 
   20200    54.344968    163222.79    72.289435    72.289435     36.06621          120    15999.736    18611.305   -33459.755    289.54329   -1034.3656     460.0279    72.289435    62.604488     36.06621    383.76198   -311767.07 
   20250    55.083787    163222.94    72.289456    72.289457    36.066221          120    16190.021    18005.269   -33953.544    663.03185   -767.33543    674.42462    72.289456    62.604506    36.066221     80.58197   -311767.14 
   20300    55.640348    163228.36    72.290257    72.290257     36.06662          120    16622.494    18388.153   -33215.736    316.65209   -1059.6873    373.66713    72.290257    62.605199     36.06662    598.30374   -311766.55 
   20350    55.589366    163254.93    72.294179    72.294179    36.068577          120     15563.51    18582.581   -33776.854    234.57444   -842.61905    726.60928    72.294179    62.608596    36.068577    123.07928   -311765.72 
   20400    55.299974    163290.69    72.299457    72.299457     36.07121          120    15110.771    17678.997   -34361.253    273.98882   -982.42588    273.27304    72.299457    62.613167     36.07121   -523.82817   -311765.05 
   20450    55.868473    163294.12    72.299963    72.299964    36.071463          120    14958.082    16676.948   -34918.181    231.75504   -1266.4165    861.06596    72.299963    62.613605    36.071463   -1094.3837   -311766.78 
   20500    54.976357    163245.21    72.292744    72.292745    36.067861          120    15920.786    18035.695    -33286.82    203.09474   -740.10051    682.23472    72.292744    62.607353    36.067861    223.22063   -311766.21 
   20550    54.808554    163212.06     72.28785     72.28785    36.065419          120    16658.649    18742.167   -33664.855    505.51346   -826.76142    771.07576     72.28785    62.603115    36.065419     578.6536   -311767.36 
   20600    54.526196    163219.13    72.288895    72.288895    36.065941          120    16343.591    18209.099   -33946.748    179.52447   -1080.8476      622.331    72.288895     62.60402    36.065941     201.9807   -311768.35 
   20650    54.302809    163247.36    72.293061    72.293062    36.068019          120    15821.712    17545.989   -34236.382    464.49583   -585.06267    388.62728    72.293061    62.607628    36.068019   -289.56001   -311769.36 
   20700    54.137098    163259.63    72.294873    72.294873    36.068923          120    15714.584    16961.962    -33964.99    340.08661   -947.17362    455.27232    72.294873    62.609197    36.068923   -429.48115   -311768.65 
   20750    54.548118    163242.62    72.292363    72.292363    36.067671          120    16060.731     18266.78   -33674.575    506.16931   -658.09096    599.92534    72.292363    62.607023    36.067671     217.6453   -311769.23 
   20800    54.362818    163232.76    72.290907    72.290907    36.066945          120    16508.712    18074.829   -33840.967    43.236074   -1091.5766    925.37991    72.290907    62.605762    36.066945    247.52486   -311767.29 
   20850    55.372998     163244.8    72.292684    72.292684    36.067831          120    15693.763    17615.234    -34254.27    87.894116   -884.30381    732.95146    72.292684    62.607301    36.067831   -315.09117   -311768.19 
   20900     55.41276    163254.74    72.294151    72.294152    36.068563          120     15925.63    18227.345   -33735.634    661.57657   -519.61668    777.94403    72.294151    62.608572    36.068563     139.1138   -311766.95 
   20950    56.263267    163270.81    72.296522    72.296523    36.069746          120    15762.831    17671.048   -34023.097    276.79169    -983.5073    360.21267    72.296522    62.610625    36.069746   -196.40622   -311767.14 
   21000    56.063851    163280.93    72.298017    72.298018    36.070492          120    15818.308    17874.694   -34111.513    165.23743   -1107.1107    379.03962    72.298017     62.61192    36.070492   -139.50399   -311766.66 
   21050    55.946556    163275.95    72.297281    72.297282    36.070125          120    15632.162    17855.349   -33557.824    472.41045   -1054.1221    218.00197    72.297281    62.611283    36.070125   -23.437528   -311766.51 
   21100    55.556884    163256.01    72.294339    72.294339    36.068657          120    15673.912    17628.036   -34058.184    301.85569   -964.49604    773.95623    72.294339    62.608735    36.068657   -252.07865   -311767.08 
   21150    55.242472    163220.47    72.289092    72.289093    36.066039          120    16009.569    18035.049   -34006.725    586.41172   -1148.8756     463.5213    72.289092    62.604191    36.066039    12.631128   -311767.72 
   21200    54.967413    163189.53    72.284523    72.284524     36.06376          120    16589.972    18700.317   -33358.261   -98.468316   -1157.8132    844.91053    72.284523    62.600234     36.06376    644.00913    -311768.7 
   21250    54.364929    163199.65    72.286018    72.286019    36.064506          120    16638.352    19103.948   -33233.254    207.31585   -1080.8488    887.84546    72.286018    62.601529    36.064506     836.3488   -311768.64 
   21300    54.137304    163252.29    72.293789    72.293789    36.068382          120    15781.339    17782.752   -34763.091    562.11721   -1030.6237    585.43938    72.293789    62.608258    36.068382   -399.66667   -311768.52 
   21350    54.712245    163285.64    72.298712    72.298712    36.070839          120    15042.719    17158.834    -34259.19    54.595549   -770.80133    398.69841    72.298712    62.612522    36.070839   -685.87888   -311769.15 
   21400    54.511432    163271.21    72.296582    72.296583    36.069776          120    15767.061    17729.122   -34488.509   -58.675083   -1105.7939     521.6699    72.296582    62.610678    36.069776   -330.77515   -311768.33 
   21450    54.739993    163237.41    72.291592    72.291593    36.067287          120    16188.881    18102.115   -33326.188    481.27152   -765.02436    630.76252    72.291592    62.606356    36.067287    321.60267   -311767.98 
   21500    55.238627    163224.03    72.289618    72.289619    36.066302          120    15696.274    18101.202   -34075.385    407.72854   -1105.8676    781.34629    72.289618    62.604646    36.066302   -92.636236   -311767.44 
   21550    55.696628    163222.56      72.2894    72.289401    36.066193          120    16145.843    17916.744   -33655.997   -166.95496   -856.95699    243.65523      72.2894    62.604457    36.066193    135.53013   -311767.24 
   21600    55.920732    163227.61    72.290146    72.290147    36.066565          120    16311.243     18174.05   -33762.765    476.02942   -982.59954    742.58598    72.290146    62.605104    36.066565    240.84273   -311766.71 
   21650    55.749617    163241.39     72.29218     72.29218     36.06758          120    16249.035    17979.832   -33972.892    348.76446   -707.61854    622.80547     72.29218    62.606865     36.06758     85.32499   -311766.29 
   21700     55.17887    163265.42    72.295727    72.295727    36.069349          120    15965.991    17660.563   -34125.798    406.31406   -650.18014    835.92703    72.295727    62.609937    36.069349   -166.41443   -311765.19 
   21750    55.281521    163277.05    72.297444    72.297445    36.070206          120    15827.191    17834.753   -34591.242    336.05954   -1190.7279    412.40129    72.297444    62.611424    36.070206   -309.76592   -311766.96 
   21800    54.904546    163266.79     72.29593     72.29593    36.069451          120     15759.96    17347.288   -33495.952    303.63752    -638.6843    1056.4017     72.29593    62.610112    36.069451   -129.56798   -311767.82 
   21850    54.421227    163242.76    72.292382    72.292383    36.067681          120    15864.648    17999.027   -33922.843    398.38834   -1361.5573    321.86927    72.292382     62.60704    36.067681   -19.722647   -311767.82 
   21900    54.697717    163226.19    72.289937    72.289937    36.066461          120    16618.366    18147.381   -33861.311    377.23029   -790.09038    577.19347    72.289937    62.604922    36.066461    301.47861   -311769.19 
   21950    54.246657    163235.26    72.291275    72.291275    36.067128          120    15680.001    18181.398   -34211.002    22.495476   -1269.0274    465.12891    72.291275    62.606081    36.067128    -116.5342   -311768.99 
   22000    54.360257    163244.58    72.292651    72.292652    36.067815          120    15906.252    18053.114   -33970.346    217.42234   -934.37819    347.39371    72.292651    62.607273    36.067815   -3.6596029   -311768.91 
   22050    54.816871    163250.46    72.293519     72.29352    36.068248          120    15660.406    17812.903   -33910.729    301.85521   -975.83751    703.97765    72.293519    62.608025    36.068248   -145.80669    -311768.6 
   22100    54.864481    163247.15     72.29303    72.293031    36.068004          120    16177.184    17623.379   -33909.921    197.90019   -844.66542     549.1826     72.29303    62.607601    36.068004   -36.452655   -311768.04 
   22150    55.297853    163240.02    72.291978    72.291979    36.067479          120    16341.739    17983.202   -33899.628    488.64081   -1003.3845    646.91238    72.291978     62.60669    36.067479    141.77094   -311766.64 
   22200    55.397276    163243.42     72.29248     72.29248    36.067729          120    16426.028    18628.717     -33653.1    60.044167   -808.86445     773.8374     72.29248    62.607124    36.067729     467.2152   -311765.78 
   22250    55.540968    163258.83    72.294755    72.294756    36.068865          120     15719.93    18240.718   -34077.389   -35.447508   -916.39742     762.3055    72.294755    62.609095    36.068865   -38.913839   -311765.95 
   22300    55.415708    163260.03    72.294932    72.294933    36.068953          120    16187.143    17381.436   -34441.982    131.60873   -1220.0712    726.96273    72.294932    62.609249    36.068953    -291.1344    -311765.7 
   22350    55.039016    163250.07    72.293462    72.293462    36.068219          120    15851.442    18247.104   -33945.508    243.39312   -1063.7995    639.41043    72.293462    62.607975    36.068219    51.012914   -311765.74 
   22400    54.938528    163248.88    72.293286    72.293286    36.068132          120    15660.244    17679.478   -33845.348    215.29376   -770.05328    580.54395    72.293286    62.607823    36.068132   -168.54194   -311766.62 
   22450     55.00842     163243.7    72.292521    72.292522     36.06775          120    15912.022    17395.968   -34468.487    386.56928   -826.19018    854.87466    72.292521    62.607161     36.06775   -386.83204   -311768.22 
   22500    54.851169     163231.7     72.29075     72.29075    36.066866          120    15968.038    18548.716   -33868.352    498.17294   -655.07442    736.97835     72.29075    62.605626    36.066866    216.13395   -311768.87 
   22550    54.191266    163240.43    72.292038    72.292039    36.067509          120    16076.422    17973.919   -34365.092    442.41854   -887.41103    540.79123    72.292038    62.606742    36.067509   -104.91706   -311768.14 
   22600    53.834742    163251.29    72.293642    72.293642    36.068309          120    16736.408    18145.634   -33343.196     203.3345   -640.95654     469.1004    72.293642    62.608131    36.068309     512.9484   -311767.92 
   22650    54.449503    163271.88    72.296681    72.296682    36.069825          120    15967.528    17165.207   -34208.689    484.75481   -716.08381    608.14123    72.296681    62.610763    36.069825   -358.65133   -311768.47 
   22700    54.278774    163277.86    72.297564    72.297564    36.070266          120    15880.933    17598.677   -34377.246    349.40789   -1033.2489    589.71177    72.297564    62.611527    36.070266   -299.21211   -311767.19 
   22750    54.957836    163263.35    72.295422    72.295422    36.069197          120    15905.294    17946.657   -33648.969    261.09426   -840.82799    600.25797    72.295422    62.609672    36.069197    67.660573   -311767.48 
   22800    55.440068     163241.6    72.292212    72.292212    36.067596          120    15450.811    18113.353   -34348.888    6.8953135   -1012.9427    215.04926    72.292212    62.606893    36.067596   -261.57472    -311766.9 
   22850    55.591047    163213.54    72.288068    72.288069    36.065528          120     16012.46    18159.132   -33788.281    -34.77867   -740.39724    182.39554    72.288068    62.603304    36.065528    127.77006   -311766.55 
   22900    56.200862    163207.55    72.287185    72.287186    36.065088          120    16140.704    18276.474   -33644.464    698.46919   -970.10934    610.34779    72.287185    62.602539    36.065088    257.57154   -311767.19 
   22950    55.669944    163232.98    72.290938    72.290939     36.06696          120    16369.998    17946.387    -33706.63    691.34227   -583.60863    510.89663    72.290938    62.605789     36.06696    203.25171   -311766.31 
   23000    55.470126    163262.28    72.295265    72.295265    36.069119          120    15471.915    17737.894   -34024.061    200.42461   -1140.5336    690.97027    72.295265    62.609536    36.069119   -271.41731   -311766.98 
   23050    54.999832    163274.23    72.297028    72.297029    36.069999          120    15332.694    17871.851    -34520.29    324.62565   -1135.2494    799.00452    72.297028    62.611064    36.069999   -438.58175   -311767.07 
   23100    54.608324    163263.75    72.295481    72.295482    36.069227          120    15581.799    17872.749   -34025.852    192.22546   -1088.1731    733.79713    72.295481    62.609724    36.069227   -190.43454   -311767.18 
   23150    54.801502    163235.68    72.291337    72.291338    36.067159          120    15934.091    18180.921    -34087.27   -179.78413    -1295.829    1004.3618    72.291337    62.606135    36.067159    9.2474476   -311768.86 
   23200    54.404775    163214.01    72.288138    72.288138    36.065563          120    16528.673    18776.772   -33348.256     53.83949   -1055.8393    375.30407    72.288138    62.603364    36.065563    652.39668   -311768.75 
   23250    54.385794    163226.05    72.289915    72.289916     36.06645          120    16063.716    18339.081   -33976.679    179.63356   -737.49891    682.00843    72.289915    62.604904     36.06645    142.03939   -311768.53 
   23300    54.655082    163245.09    72.292727    72.292727    36.067853          120     15856.87     18116.84   -34068.619    100.33109   -901.96741    642.34624    72.292727    62.607339    36.067853    -31.63631   -311768.29 
   23350    54.718207    163258.68    72.294732    72.294733    36.068853          120    15649.963    17730.439   -33992.004    341.32399   -920.96978    344.86106    72.294732    62.609076    36.068853   -203.86732   -311767.92 
   23400    55.139416     163263.1    72.295385    72.295385    36.069179          120    15951.313    17889.189   -33951.242    141.79209    -1129.543    596.91425    72.295385     62.60964    36.069179   -36.913115   -311767.01 
   23450    55.840057    163268.99    72.296255    72.296255    36.069613          120    15555.494    18001.514   -34174.988    451.64401    -1212.873    700.83479    72.296255    62.610394    36.069613    -205.9936   -311767.54 
   23500    55.449786     163266.8    72.295931    72.295931    36.069451          120     15193.93    17310.566   -34546.023    428.84726   -522.97555    943.67163    72.295931    62.610113    36.069451   -680.50892   -311766.14 
   23550    55.860823    163236.48    72.291455    72.291456    36.067218          120    16511.127    17871.126   -33721.732    496.57308   -963.04033    957.14132    72.291455    62.606237    36.067218    220.17374   -311766.45 
   23600    55.744772    163217.18    72.288606    72.288606    36.065797          120    16576.772    18528.874   -34128.331    533.10834   -955.28067    550.46115    72.288606     62.60377    36.065797    325.77191   -311766.67 
   23650    55.239813     163228.5    72.290277    72.290277     36.06663          120    16689.351    18261.645   -33094.828    300.41194   -542.67488    235.07599    72.290277    62.605217     36.06663    618.72272   -311766.44 
   23700     54.99321    163263.09    72.295383    72.295383    36.069178          120    15635.451    17651.619   -33973.498    346.91857   -1052.6878    803.00338    72.295383    62.609639    36.069178   -228.80945   -311767.24 
   23750    55.297598    163282.23    72.298209     72.29821    36.070588          120    15451.752    17745.554   -34477.064    425.64426   -1123.9184    308.82936    72.298209    62.612086    36.070588    -426.5859   -311769.13 
   23800    54.244305     163281.3    72.298072    72.298072    36.070519          120    15661.906    17055.533   -34273.149    91.062976   -499.56114    656.70747    72.298072    62.611967    36.070519   -518.57033      -311768 
   23850     55.08401    163260.89    72.295059     72.29506    36.069016          120    15784.686    17298.068   -34552.796    165.68114   -1023.6202    979.24356    72.295059    62.609359    36.069016   -490.01387   -311769.99 
   23900    54.297892    163234.33    72.291138    72.291138     36.06706          120    15944.916    18473.349    -33443.58    383.72576    -540.5228     1144.332    72.291138    62.605963     36.06706    324.89504   -311768.69 
   23950    54.520387    163220.37    72.289077    72.289078    36.066032          120    15992.482    18140.485   -33898.802    174.55045   -1162.1293    624.72526    72.289077    62.604178    36.066032    78.054912   -311768.02 
   24000    54.609201    163213.97    72.288133    72.288133    36.065561          120    16210.225    18057.674   -33678.282    355.48775    -696.2762    545.14231    72.288133     62.60336    36.065561    196.53891   -311767.28 
   24050    55.340502    163222.21    72.289349    72.289349    36.066167          120    16595.959    18158.734   -34036.463    394.60436   -1012.5953    765.32953    72.289349    62.604413    36.066167    239.40977   -311767.48 
   24100    55.384344    163238.58    72.291765    72.291766    36.067373          120    15958.789    18108.416   -34105.005    249.19284   -824.00443     252.3843    72.291765    62.606506    36.067373   -12.599978   -311766.42 
   24150    55.451667    163260.44    72.294992    72.294993    36.068983          120     15661.09    17817.239   -34018.595    113.36122   -1080.9511    545.87294    72.294992    62.609301    36.068983   -180.08869   -311765.94 
   24200    55.929343     163279.5    72.297806    72.297807    36.070387          120    16437.488    17987.451   -33724.199    150.27367    -921.3334    593.31642    72.297806    62.611737    36.070387    233.57985   -311766.51 
   24250    55.250191    163299.06    72.300693    72.300694    36.071827          120    15167.755    17787.509   -34511.688    310.21641     -392.236    518.84778    72.300693    62.614237    36.071827   -518.80779   -311765.62 
   24300    55.194135    163288.14    72.299081    72.299081    36.071023          120    14958.046    17297.953   -33814.486    397.54428   -845.34237    742.54789    72.299081    62.612841    36.071023   -519.49581   -311766.79 
   24350    54.870881    163249.16    72.293328    72.293328    36.068152          120    16267.985    18070.667   -34263.196    207.60891   -749.31863    860.71983    72.293328    62.607859    36.068152    25.152027   -311767.71 
   24400    54.590233    163213.92    72.288125    72.288126    36.065557          120    16658.445    18381.023   -33546.851   -5.9531997   -880.27264    973.31518    72.288125    62.603354    36.065557    497.53895   -311767.92 
   24450    54.764195    163212.59    72.287928    72.287929    36.065458          120     16117.56    18357.986   -33460.412    308.13585   -1279.9307    843.14122    72.287928    62.603183    36.065458    338.37798   -311769.25 
   24500    54.279036    163231.58    72.290732    72.290732    36.066857          120    15621.857    17843.345    -34174.92    449.22073   -843.98407    964.66567    72.290732    62.605611    36.066857   -236.57286   -311768.22 
   24550    54.800734    163238.76    72.291792    72.291793    36.067386          120    15815.206    18313.452   -33205.681   -44.501099   -1115.4479    378.83606    72.291792    62.606529    36.067386    307.65928   -311768.88 
   24600    54.867007    163250.71    72.293556    72.293556    36.068266          120        15814    17435.419   -34291.765    250.50381   -921.77405    538.10073    72.293556    62.608057    36.068266   -347.44883   -311768.05 
   24650    54.756549    163256.14    72.294358    72.294358    36.068666          120     15815.75    18060.261   -33771.982    391.85377   -595.05247    431.11935    72.294358    62.608751    36.068666    34.676195   -311766.79 
   24700     55.51172    163259.17    72.294804    72.294805    36.068889          120    16116.525    18020.019   -34074.868    26.422765   -1193.5925    805.82761    72.294804    62.609138    36.068889    20.558396    -311767.4 
   24750    55.519808    163263.37    72.295425    72.295426    36.069199          120    15897.743    17554.194   -33647.178    56.838936   -993.57848    540.55988    72.295425    62.609676    36.069199   -65.080313      -311767 
   24800    55.391517    163258.33    72.294681    72.294682    36.068828          120     15717.46     18466.59   -33661.792    144.55111   -922.06482    700.50295    72.294681    62.609031    36.068828    174.08597   -311765.68 
   24850    55.247126    163244.38    72.292622    72.292623      36.0678          120    16215.103    17825.824   -33948.691    389.08077   -744.28959    894.82133    72.292622    62.607248      36.0678    30.745393   -311765.63 
   24900    55.749563    163236.43    72.291448    72.291449    36.067215          120    15923.594    18143.618   -33834.488   -113.66703   -811.48773    697.35798    72.291448    62.606231    36.067215    77.574806   -311767.83 
   24950    55.016002    163234.18    72.291116    72.291116    36.067049          120    16037.626    18469.375   -34067.633    347.15323   -725.09501    899.98754    72.291116    62.605943    36.067049    146.45573   -311767.18 
   25000    54.637491    163236.14    72.291405    72.291406    36.067193          120    16246.286    18432.989   -32781.472    302.31063   -724.72035     1172.379    72.291405    62.606194    36.067193    632.60082    -311767.8 
   25050    54.202258    163260.26    72.294965    72.294966    36.068969          120    16115.454    17288.055    -34095.12    18.569495   -391.70427    508.77857    72.294965    62.609277    36.068969   -230.53693   -311767.56 
   25100    54.467209    163271.61    72.296641    72.296642    36.069806          120    15116.042    17432.124   -34517.197    299.97371   -542.95213    660.19484    72.296641    62.610729    36.069806   -656.34336   -311768.42 
   25150    54.062577    163248.73    72.293264    72.293265    36.068121          120    15556.747    17827.578   -34336.076    214.32455   -1338.8559    665.83746    72.293264    62.607804    36.068121   -317.25029   -311768.01 
   25200    55.092695    163215.66    72.288382    72.288382    36.065685          120     15871.09    18191.288    -34064.35   -85.870418   -640.94568     402.0968    72.288382    62.603576    36.065685   -0.6571245   -311769.45 
   25250    54.956027    163196.47    72.285548    72.285549    36.064271          120      17400.4    18809.319   -32900.466    339.28401   -1378.7302    288.21809    72.285548    62.601122    36.064271     1103.084   -311768.34 
   25300    54.919702    163225.28    72.289803    72.289803    36.066394          120     16343.95    17670.728   -34265.618    415.74683   -833.56919     748.8381    72.289803    62.604806    36.066394   -83.646841   -311767.16 
   25350    55.196176    163262.42    72.295285    72.295286    36.069129          120    15704.525    17500.741   -34146.489    161.93255   -1231.1144    360.03827    72.295285    62.609554    36.069129   -313.74084   -311766.48 
   25400    55.630342     163283.1    72.298337    72.298338    36.070652          120    16186.485    18019.636   -34505.128    107.71836   -954.05457    720.29273    72.298337    62.612197    36.070652    -99.66882   -311766.45 
   25450    55.358131    163295.68    72.300194    72.300195    36.071578          120    15575.883    17890.578   -34333.284    485.01909   -571.67544    721.18543    72.300194    62.613805    36.071578   -288.94088   -311765.65 
   25500    55.788744    163285.57    72.298702    72.298703    36.070834          120    15374.942    17797.238   -34426.427     558.3565   -1024.1255    664.43852    72.298702    62.612513    36.070834   -418.08206   -311767.37 
   25550    55.556521    163249.99     72.29345    72.293451    36.068213          120    15736.527    17397.558   -34104.285    420.12305   -653.28626    892.13246     72.29345    62.607965    36.068213   -323.40023   -311767.26 
   25600    54.961997    163214.44    72.288202    72.288202    36.065595          120     16699.95    18465.389   -33258.093    397.96542   -931.96356    712.18613    72.288202     62.60342    36.065595    635.74851   -311767.52 
   25650    54.871782    163206.44    72.287021    72.287021    36.065006          120     16417.89     18006.86   -33898.475    609.50974   -795.33599    612.89806    72.287021    62.602397    36.065006    175.42483   -311768.66 
   25700    54.467787    163213.31    72.288034    72.288035    36.065512          120    16706.175    18576.585    -33314.32    502.35413   -1059.3971    418.61104    72.288034    62.603275    36.065512    656.14658   -311768.84 
   25750    54.212001     163243.4    72.292476    72.292477    36.067728          120    15740.037    18070.677   -33266.507    410.61367   -1037.7379    486.18972    72.292476    62.607122    36.067728    181.40247   -311768.15 
   25800    54.298431    163272.12    72.296716    72.296717    36.069843          120    15652.186    17749.759   -34387.231    383.88385   -1194.8665    225.86835    72.296716    62.610793    36.069843   -328.42851   -311768.26 
   25850     55.00137    163282.93    72.298312    72.298312    36.070639          120    16073.345    17704.435   -33901.253    229.20224   -725.98313    1124.5187    72.298312    62.612175    36.070639   -41.157649   -311768.57 
   25900    55.077689    163275.92    72.297277    72.297277    36.070123          120    16274.098    17830.094   -33643.842    498.91833   -1175.3049    411.53489    72.297277    62.611279    36.070123    153.45002   -311767.85 
   25950    55.203815     163258.5    72.294706    72.294707     36.06884          120    16143.192    17555.127   -34056.596    76.608166   -723.31582    681.44956    72.294706    62.609053     36.06884   -119.42596   -311766.45 
   26000    55.226513       163245    72.292713    72.292713    36.067846          120    15552.101    17729.249   -34053.304    51.908562   -724.47113    602.77742    72.292713    62.607326    36.067846   -257.31823    -311766.5 
   26050     55.49345     163227.2    72.290086    72.290087    36.066535          120     16615.36    18469.748   -33372.432   -71.215704   -418.36076    139.43175    72.290086    62.605052    36.066535     570.8923   -311766.07 
   26100    55.711604    163227.53    72.290134    72.290135    36.066559          120    16549.019    18549.827   -33351.996    301.87272   -1297.5627    530.15515    72.290134    62.605093    36.066559    582.28352   -311766.63 
   26150    55.131514    163247.12    72.293026    72.293027    36.068002          120    15567.182    17600.111   -34236.697    110.40865   -710.89207     697.6061    72.293026    62.607598    36.068002   -356.46795   -311766.54 
   26200    55.273343    163253.56    72.293977    72.293978    36.068477          120    15705.474    17834.807   -34738.867     200.2054    -1192.611    619.35589    72.293977    62.608422    36.068477   -399.52874   -311767.95 
   26250    54.936958    163254.53     72.29412     72.29412    36.068548          120    15996.754    17770.066   -34118.358    394.56716   -948.40247    711.44224     72.29412    62.608545    36.068548   -117.17939   -311767.51 
   26300    54.914765    163256.28    72.294378    72.294378    36.068676          120    16337.131    17912.851    -33746.03    166.31254   -1105.8896    839.22331    72.294378    62.608768    36.068676    167.98401   -311768.07 
   26350    54.626132    163262.97    72.295365    72.295366    36.069169          120    15766.492    17558.376   -33985.805    234.89295    -1198.321    579.37191    72.295365    62.609624    36.069169   -220.31242   -311768.47 
   26400    54.843244     163260.9    72.295061    72.295061    36.069017          120    15733.702    17522.742   -34510.263    70.898398   -987.58649    625.64141    72.295061     62.60936    36.069017   -417.93964   -311768.85 
   26450    54.616633    163242.93    72.292408    72.292408    36.067693          120    16001.231    18295.679   -33936.451    439.81269   -929.47162    395.46138    72.292408    62.607062    36.067693    120.15302   -311768.56 
   26500    54.873857    163228.49    72.290276    72.290277     36.06663          120    16169.132    18578.889     -33675.4    346.33715   -895.63458    888.60064    72.290276    62.605216     36.06663    357.54007   -311768.12 
   26550    55.054458    163227.48    72.290127    72.290128    36.066556          120    16359.127    17803.401   -33952.379    480.25578   -980.22858    547.02916    72.290127    62.605087    36.066556    70.049604   -311767.61 
   26600    55.571722    163236.93    72.291522    72.291523    36.067252          120    16016.153    17971.275   -33611.016    133.41316   -775.21794    419.11287    72.291522    62.606295    36.067252    125.47048   -311767.27 
   26650     55.60534    163251.01    72.293601    72.293601    36.068289          120     16051.73    18354.492   -34019.325    310.83546   -967.26078    510.10096    72.293601    62.608095    36.068289    128.96566   -311766.71 
   26700    55.808642    163266.46    72.295881    72.295882    36.069426          120    16035.014    18078.684   -33643.881    465.15712   -766.68272    638.12625    72.295881     62.61007    36.069426    156.60554      -311767 
   26750    55.219747    163289.54    72.299287    72.299288    36.071126          120    15743.967    17475.887   -34813.564    377.36187   -870.85755    685.82817    72.299287     62.61302    36.071126   -531.23671   -311765.44 
   26800     55.03342    163291.86     72.29963    72.299631    36.071297          120    15242.691    16878.027   -34802.006    576.99687    -767.4004    714.72046     72.29963    62.613317    36.071297   -893.76274   -311766.93 
   26850    54.999662    163256.11    72.294353    72.294353    36.068664          120    15711.732    18186.941   -33814.228    344.50041   -1176.1562    597.40252    72.294353    62.608746    36.068664    28.148278   -311767.08 
   26900     54.74822    163218.11    72.288743    72.288744    36.065865          120    16284.304    18047.673   -33624.853    434.78657   -745.21745    655.38456    72.288743    62.603889    36.065865    235.70773   -311767.89 
   26950     54.56072    163195.89    72.285462    72.285463    36.064228          120    16542.146    18081.166    -33441.68    201.18248   -1238.7188    765.51028    72.285462    62.601047    36.064228    393.87705   -311768.25 
   27000    54.687662    163204.88    72.286791    72.286791    36.064891          120    16711.102    18805.676   -33076.273    190.96062   -658.82386    757.28384    72.286791    62.602198    36.064891    813.50164   -311769.28 
   27050    54.483371    163254.35    72.294093    72.294094    36.068534          120    15857.531    18471.143   -33473.319    137.98065   -1085.6611    1136.4319    72.294093    62.608522    36.068534    285.11826   -311768.19 
   27100    54.697452    163305.72    72.301675    72.301676    36.072317          120    15272.897    17318.119   -34726.344    6.4338112   -1300.5159    595.02527    72.301675    62.615088    36.072317   -711.77584   -311767.99 
   27150    54.939575    163309.65    72.302255    72.302255    36.072606          120    15524.135    17318.811   -34680.395    113.02059   -1391.5042    592.13131    72.302255     62.61559    36.072606   -612.48296   -311767.58 
   27200    54.816664    163273.22    72.296879    72.296879    36.069924          120    16116.917     17438.16   -34618.096    325.83854   -1019.6373    512.42741    72.296879    62.610934    36.069924    -354.3397   -311766.52 
   27250    55.237893    163218.51    72.288803    72.288804    36.065895          120    16265.012    18532.338   -33428.942    245.25821   -969.26448     548.0632    72.288803    62.603941    36.065895    456.13571   -311766.58 
   27300    55.472653       163189    72.284445    72.284446    36.063721          120    16251.823    18800.137     -33331.9   -75.089616   -812.09833    624.70809    72.284445    62.600167    36.063721    573.35341      -311767 
   27350    55.385023    163198.58     72.28586    72.285861    36.064427          120    16175.678    18367.631   -33203.484     452.9981   -738.66969    489.92982     72.28586    62.601392    36.064427    446.60817    -311766.6 
   27400    55.524889    163230.61    72.290588    72.290589    36.066786          120    16016.362    17853.516   -33862.033    172.09483   -920.65172    613.17031    72.290588    62.605487    36.066786    2.6149777   -311766.76 
   27450    54.737219    163264.07    72.295528    72.295529     36.06925          120     16278.92    17855.078   -33934.057    161.52937   -858.04589    740.81868    72.295528    62.609764     36.06925    66.647039   -311766.03 
   27500    55.060789    163295.49    72.300165    72.300166    36.071564          120    15698.157    17332.024   -34689.878    182.19592   -956.29269    694.28568    72.300165     62.61378    36.071564   -553.23222   -311767.65 
   27550     54.57861    163290.94    72.299494    72.299495    36.071229          120    15119.212    17543.623    -34825.29    129.83855   -1011.0575    522.19003    72.299494    62.613199    36.071229   -720.81795   -311767.75 
   27600    54.684615    163251.99    72.293745    72.293746    36.068361          120    16246.735    17892.575   -33392.551   -25.092112   -1250.5757    613.35769    72.293745    62.608221    36.068361     248.9194   -311768.67 
   27650    54.599439    163224.15    72.289635    72.289635     36.06631          120    16242.831    18068.197   -34332.889    685.85259   -1230.0317    351.40419    72.289635    62.604661     36.06631   -7.2870709   -311768.48 
   27700    54.766664    163209.33    72.287447    72.287447    36.065218          120    16236.574    18373.441    -33613.71    300.14453   -871.62247    579.93818    72.287447    62.602766    36.065218    332.10127   -311768.65 
   27750    54.329493    163218.18    72.288754    72.288754     36.06587          120    16429.125    18692.764    -33296.64   -8.2940989   -889.59139    912.55479    72.288754    62.603898     36.06587     608.4164   -311767.38 
   27800    55.297596    163249.97    72.293447    72.293447    36.068212          120    15928.076    17896.832   -34280.483    400.68498   -416.34131    374.55947    72.293447    62.607962    36.068212   -151.85833   -311768.25 
   27850    55.045214    163276.23    72.297323    72.297323    36.070146          120    15884.837     17762.63   -33724.458    509.95257   -1094.7302    700.46156    72.297323    62.611319    36.070146   -25.663523   -311766.86 
   27900    55.002315    163288.92    72.299196    72.299197     36.07108          120    15706.965    17698.658    -33983.44    217.63358   -882.18402    487.85287    72.299196    62.612941     36.07108   -192.60535   -311766.13 
   27950    55.688129     163279.5    72.297805    72.297806    36.070386          120    15667.001    17593.258   -34212.549    368.03197   -939.77583    779.25636    72.297805    62.611736    36.070386   -317.42996   -311766.62 
   28000    55.317078    163248.65    72.293252    72.293252    36.068114          120    15619.235     17577.84   -34408.206    414.50042   -757.93078     676.0857    72.293252    62.607793    36.068114   -403.71053   -311766.48 
   28050    55.161375    163208.01    72.287252    72.287253    36.065121          120    15863.898    18855.173   -33238.639    344.35926   -833.39001    488.05032    72.287252    62.602598    36.065121    493.47748   -311766.61 
   28100    54.907624    163197.49      72.2857      72.2857    36.064347          120    16250.736    18194.602   -34337.881    357.15199   -1213.1747    1023.3545      72.2857    62.601253    36.064347    35.818981   -311766.95 
   28150    54.797731    163206.27    72.286996    72.286997    36.064993          120    16201.534     18634.78   -33612.004    77.709294    -806.5437    536.80144    72.286996    62.602376    36.064993    408.10342   -311767.48 
   28200    54.533612    163238.25    72.291716    72.291717    36.067348          120    16209.875     18264.22    -33787.61    39.591916   -1031.0181    624.33588    72.291716    62.606463    36.067348    228.82856   -311767.92 
   28250    54.584788    163276.41    72.297349     72.29735    36.070159          120    15726.341     17867.32   -33849.045    293.01381   -681.54871     736.3726    72.297349    62.611342    36.070159   -85.128051   -311768.02 
   28300    53.768821    163307.81    72.301984    72.301985    36.072471          120     15450.85    17838.827   -34719.639    316.16727   -727.68879    751.20268    72.301984    62.615356    36.072471   -476.65417   -311766.46 
   28350    54.772622    163311.97    72.302597    72.302598    36.072777          120    15727.718    17648.205   -33790.194    373.72386   -1031.0454    572.99728    72.302597    62.615887    36.072777   -138.09047   -311768.43 
   28400    54.598752     163290.3    72.299399      72.2994    36.071182          120     15569.04     17266.26   -34630.159    353.47845   -677.41056    737.73207    72.299399    62.613117    36.071182   -598.28618   -311767.32 
   28450     55.22607    163238.85    72.291805    72.291805    36.067393          120     15839.95    17849.219   -33447.932     365.4077   -703.53054     244.5517    72.291805     62.60654    36.067393    80.412656   -311768.17 
   28500    54.913352     163193.9    72.285169     72.28517    36.064082          120    16310.704    18582.106   -33588.776    266.49721   -1083.3838    490.55577    72.285169    62.600793    36.064082    434.67825    -311766.9 
   28550    55.527135    163184.89    72.283838    72.283839    36.063418          120    17255.448    18584.269   -33090.863    187.00159   -781.11435     330.1221    72.283838    62.599641    36.063418    916.28452   -311767.46 
   28600    55.499299    163225.36    72.289814    72.289815    36.066399          120    16270.344    18206.986   -33402.806    406.13614   -1108.5828    676.22829    72.289814    62.604816    36.066399     358.1749   -311767.02 
   28650    55.218447    163280.17    72.297904    72.297904    36.070435          120    15490.794    17796.812   -34738.673    567.33228   -955.10053     408.4316    72.297904    62.611822    36.070435   -483.68918   -311766.03 
   28700    55.482983    163307.81    72.301983    72.301984    36.072471          120    16268.967    17442.773   -34012.517     252.7964   -1143.1539    437.20386    72.301983    62.615355    36.072471   -100.25915    -311767.5 
   28750      55.5151    163309.94    72.302299    72.302299    36.072628          120    15061.536    16804.289   -34937.625    483.35215   -829.26791     721.6601    72.302299    62.615628    36.072628    -1023.933   -311768.02 
   28800    54.216831    163265.51     72.29574    72.295741    36.069356          120    16239.563    17826.341   -33659.136     267.1868   -799.07057    635.70042     72.29574    62.609948    36.069356    135.58926   -311766.67 
   28850     54.89831    163215.83    72.288407    72.288408    36.065697          120    16345.794    18475.273   -33940.552    467.61961   -1105.8273    668.61383    72.288407    62.603598    36.065697    293.50491   -311768.78 
   28900     54.71248    163192.58    72.284975    72.284975    36.063985          120     16551.87    18422.365   -33414.385    289.90338   -598.52327    638.22693    72.284975    62.600625    36.063985    519.95003   -311768.89 
   28950    54.644561    163211.98    72.287839     72.28784    36.065414          120    16828.864    18556.664   -33338.687    483.69938   -1055.4324    720.01118    72.287839    62.603106    36.065414    682.28043   -311768.62 
   29000    55.069247    163260.66    72.295025    72.295025    36.068999          120    15812.786    17835.833   -33999.475    574.43384     -1011.94    903.79897    72.295025    62.609329    36.068999   -116.95186   -311768.53 
   29050    54.983538    163298.92    72.300672    72.300672    36.071816          120    15297.102    17763.936   -34489.765    489.38077    -1067.082     381.3692    72.300672    62.614219    36.071816   -476.24243   -311767.28 
   29100    55.150405     163302.7     72.30123     72.30123    36.072095          120    15510.744    17407.598   -34520.848    308.41796   -1121.7246    619.00733     72.30123    62.614702    36.072095   -534.16861   -311767.19 
   29150    55.185571    163273.14    72.296866    72.296867    36.069918          120    15904.041    17627.115   -34378.408    357.96456   -989.60913    649.54416    72.296866    62.610923    36.069918   -282.41714   -311766.86 
   29200    55.388266    163232.36    72.290846    72.290847    36.066915          120    16126.019     18017.07   -33782.791    90.176485    -1065.493    531.85183    72.290846     62.60571    36.066915    120.09939   -311766.81 
   29250    55.720888    163204.05    72.286668    72.286669     36.06483          120    16356.603    18411.489   -33330.903    321.68198   -857.36694     741.7259    72.286668    62.602091     36.06483    479.06301   -311767.39 
   29300    55.586352    163206.93    72.287094    72.287094    36.065042          120    15811.185    18393.482   -33997.256    87.684795   -1048.6156    559.20058    72.287094     62.60246    36.065042    69.136943   -311767.58 
   29350    55.369851    163228.19    72.290231    72.290232    36.066608          120    16294.818    18180.989   -33517.488    14.313631     -762.513    882.62595    72.290231    62.605177    36.066608    319.43989   -311767.78 
   29400    54.733524     163260.6    72.295016    72.295016    36.068994          120    15756.634    17527.623   -34257.172    388.48651   -792.97227    597.82555    72.295016    62.609321    36.068994   -324.30506   -311766.91 
   29450    54.706467    163277.69    72.297539     72.29754    36.070254          120    15321.324    17876.865   -33844.842    421.71368   -871.19516    774.75069    72.297539    62.611506    36.070254   -215.55111   -311767.62 
   29500     54.58243    163278.56    72.297667    72.297667    36.070317          120    16342.126    18312.081   -34250.577    590.44172   -990.44735    725.19252    72.297667    62.611617    36.070317    134.54299   -311768.14 
   29550    54.619334    163267.17    72.295985    72.295986    36.069478          120    15669.935    17323.819   -34097.718    126.95173   -725.08872    376.96984    72.295985    62.610161    36.069478   -367.98789   -311768.53 
   29600    54.797988    163241.13    72.292142    72.292143    36.067561          120     16303.22    18461.939   -33939.708    313.38387   -1014.4873    682.02779    72.292142    62.606832    36.067561    275.15034   -311768.14 
   29650     54.94912    163228.51    72.290279    72.290279    36.066631          120     16601.38    18054.479   -33528.627    335.72326   -840.01181     681.1271    72.290279    62.605218    36.066631    375.74417   -311767.77 
   29700     54.78518    163241.67    72.292221    72.292221      36.0676          120    16352.042    18617.016   -33614.894    313.54015    -921.7043    842.25236    72.292221      62.6069      36.0676    451.38807   -311766.97 
   29750    55.290109    163263.74    72.295479    72.295479    36.069226          120    16133.021     18114.95   -34258.721    252.16451   -1340.7668    829.91713    72.295479    62.609722    36.069226   -3.5831943   -311766.92 
   29800    55.475783    163272.44    72.296763    72.296764    36.069866          120    14946.577    17090.496   -34434.474    140.80583   -479.91673      830.496    72.296763    62.610834    36.069866   -799.13364   -311767.29 
   29850    55.044633    163252.16     72.29377     72.29377    36.068373          120    16027.121    17786.036   -33707.782    421.96409   -788.27136    663.15924     72.29377    62.608242    36.068373    35.125278   -311766.29 
   29900    55.190236    163230.35     72.29055    72.290551    36.066767          120    16163.343     18362.03   -33866.684    165.61912   -843.22223    1068.2258     72.29055    62.605453    36.066767    219.56316   -311766.69 
   29950    55.407997    163221.32    72.289218    72.289219    36.066102          120    16277.744    18219.412   -33560.501    277.70869   -1252.1626    627.94917    72.289218      62.6043    36.066102    312.21823   -311767.34 
   30000    55.556792    163234.04    72.291095    72.291095    36.067038          120    15860.878    18241.886    -33996.25    349.23372   -876.53397    836.13173    72.291095    62.605925    36.067038    35.504704   -311768.36 
   30050    54.992927    163260.54    72.295007    72.295007     36.06899          120    16399.026    18154.262   -34276.755    262.47412   -359.14458    694.77512    72.295007    62.609313     36.06899     92.17779   -311767.71 
   30100    54.680028    163291.33    72.299552    72.299552    36.071258          120    15577.295     17586.58   -33958.075     359.5039   -930.72698     945.8936    72.299552    62.613249    36.071258   -264.73331   -311767.58 
   30150    54.524481     163299.1    72.300698    72.300699     36.07183          120    14914.015     17218.05   -34714.013    153.14225   -766.42204    516.73488    72.300698    62.614242     36.07183   -860.64927   -311767.66 
   30200    54.656756    163255.99    72.294335    72.294336    36.068655          120    15681.849    17656.598       -33944    212.19368   -1147.4748    1053.1015    72.294335    62.608731    36.068655   -201.85125   -311767.95 
   30250    54.659776     163198.8    72.285893    72.285893    36.064443          120    16536.448    18416.051   -33425.293    278.03263   -1066.0553      39.5463    72.285893     62.60142    36.064443    509.06858   -311768.12 
   30300    54.460291    163173.42    72.282145    72.282146    36.062573          120    16736.864    18715.589   -33291.838    102.83515   -560.15826    1169.6044    72.282145    62.598175    36.062573    720.20509   -311767.41 
   30350    54.879193    163194.38     72.28524     72.28524    36.064117          120    16428.094    19463.887   -33066.061    304.62045    -1005.641     155.2704     72.28524    62.600855    36.064117    941.97337   -311767.28 
   30400    54.830563    163260.09     72.29494    72.294941    36.068957          120    16120.624    17811.237   -34594.381    277.63834   -1183.6922     925.1677     72.29494    62.609256    36.068957   -220.84013    -311765.8 
   30450    55.087792    163314.56     72.30298    72.302981    36.072968          120    14919.056    17093.369   -34920.501    225.50061   -831.37725    215.35927     72.30298    62.616218    36.072968   -969.35894   -311766.29 
   30500    54.919204    163316.53    72.303271    72.303272    36.073113          120    15482.759    17516.593   -34120.908    99.130629   -1228.7257    761.77537    72.303271     62.61647    36.073113   -373.85202   -311765.12 
   30550    55.375201    163285.69    72.298719    72.298719    36.070842          120    15770.989    17728.062   -34585.636    217.13804   -871.65833    317.84192    72.298719    62.612528    36.070842   -362.19535   -311766.68 
   30600      55.2219    163242.79    72.292387    72.292387    36.067683          120    15734.002     17991.43    -33944.61    141.49372   -1055.4713    1153.7737    72.292387    62.607044    36.067683   -73.059277   -311767.04 
   30650    54.700614     163213.8    72.288107    72.288108    36.065548          120    16455.473     18456.96   -33465.052    329.26871   -944.84785    843.41855    72.288107    62.603338    36.065548    482.46063   -311766.85 
   30700    55.139886    163215.29    72.288327    72.288327    36.065657          120    16227.706     18488.25   -33580.369     52.07149    -559.3708    463.08313    72.288327    62.603528    36.065657    378.52906   -311768.79 
   30750     54.95499    163232.09    72.290807    72.290807    36.066895          120     16038.27    18076.107   -34170.543    529.23478   -1021.5021    841.79921    72.290807    62.605676    36.066895   -18.721799   -311768.76 
   30800    54.671358    163251.28     72.29364    72.293641    36.068308          120    16102.385     17955.62   -33896.779    415.68994     -1218.87    238.89238     72.29364     62.60813    36.068308    53.742405   -311768.07 
   30850    54.882164    163273.12    72.296864    72.296864    36.069917          120    15792.619    17471.506   -34696.488  -0.10085373   -659.63255    441.24163    72.296864    62.610921    36.069917   -477.45439   -311768.73 
   30900    55.076879    163275.93    72.297279     72.29728    36.070124          120    15964.997    17347.762   -34488.789    43.794034   -569.04246    724.06567    72.297279    62.611281    36.070124   -392.00996   -311768.38 
   30950    54.609327       163261    72.295075    72.295075    36.069024          120     15904.23     17898.73   -34041.479    471.74113   -1022.6016    799.30687    72.295075    62.609372    36.069024   -79.506157    -311766.4 
   31000    55.304021     163243.9    72.292551    72.292551    36.067765          120    15584.972    18268.654   -33659.263    370.53136    -817.6889    906.05526    72.292551    62.607186    36.067765    64.787478    -311767.3 
   31050    55.097705       163227    72.290056    72.290056     36.06652          120    16046.881    17904.412   -34021.288    728.08508   -678.97962    768.13909    72.290056    62.605025     36.06652   -23.331531   -311766.71 
   31100    55.068167    163216.89    72.288563    72.288564    36.065775          120    15919.298    18062.684   -33815.292    458.48609   -1062.1053    1033.0134    72.288563    62.603733    36.065775    55.563316   -311766.13 
   31150    54.981581    163219.16    72.288899      72.2889    36.065943          120    16462.285    18374.421    -33454.97    14.514405   -614.23444    732.79332    72.288899    62.604024    36.065943    460.57892   -311765.94 
   31200    54.688774    163246.79    72.292977    72.292977    36.067977          120    16328.037    18196.005   -33908.434     69.61821   -504.49118    790.12364    72.292977    62.607555    36.067977    205.20275   -311765.63 
   31250    55.134098    163281.37    72.298082    72.298082    36.070524          120    15773.332    17888.092   -34167.237    125.10803   -662.91706     269.0301    72.298082    62.611976    36.070524   -168.60438   -311767.22 
   31300    54.932241    163298.64     72.30063    72.300631    36.071796          120    15535.311    17769.653   -34510.747    432.77704   -1087.5502    496.40094     72.30063    62.614183    36.071796   -401.92797   -311767.43 
   31350    55.200621     163289.3    72.299252    72.299253    36.071108          120    15631.649    17823.614   -34013.758    175.62786   -810.46097    156.64028    72.299252     62.61299    36.071108   -186.16526   -311768.54 
   31400    54.570501    163266.17    72.295838    72.295839    36.069405          120    15939.617    18148.704   -33927.322    203.02415   -1194.6605    1130.0054    72.295838    62.610033    36.069405    53.666296   -311768.15 
   31450    53.685767    163238.39    72.291737    72.291738    36.067359          120     16691.45    17766.479    -33754.03    332.69286   -1026.8265    370.14417    72.291737    62.606481    36.067359    234.63284   -311766.73 
   31500    54.982318    163218.39    72.288785    72.288786    36.065886          120    16519.466    18123.192   -33905.471    526.93405   -997.25281    499.24071    72.288785    62.603925    36.065886    245.72918   -311768.48 
   31550    54.649436    163221.09    72.289183    72.289183    36.066085          120    15720.049    18519.172    -33857.88     52.74352   -917.10726    809.95149    72.289183    62.604269    36.066085    127.11381      -311767 
   31600     55.21554    163233.35    72.290993    72.290993    36.066988          120    16227.219    18044.347   -33452.528    134.43373   -738.37562    906.47701    72.290993    62.605837    36.066988    273.01269   -311767.62 
   31650     55.57011    163248.78    72.293271    72.293271    36.068124          120    15945.355    17712.705   -34386.761    482.23987   -634.80512     815.6711    72.293271     62.60781    36.068124   -242.90029   -311767.69 
   31700    55.356359    163261.91    72.295209     72.29521    36.069091          120    15607.218    17797.663   -33644.286     411.3503   -825.67851    892.14953    72.295209    62.609488    36.069091   -79.801663   -311766.95 
   31750    55.212081     163270.3    72.296448    72.296448    36.069709          120    16032.179    17956.922   -34190.379    554.83311   -1118.7721    470.50761    72.296448    62.610561    36.069709   -67.092556   -311766.12 
   31800    55.498688    163273.54    72.296926    72.296927    36.069948          120    15826.544    17936.754   -34140.211     253.3614   -874.55715    814.59131    72.296926    62.610975    36.069948   -125.63752   -311767.06 
   31850    54.961216    163261.06    72.295084    72.295085    36.069029          120    15876.464    18072.892    -33951.68    124.48478   -1064.3511    647.25782    72.295084     62.60938    36.069029  -0.77470964      -311767 
   31900    54.673355     163244.1     72.29258    72.292581     36.06778          120    16128.993    17539.916   -33741.304     177.8341   -686.50103    293.26617     72.29258    62.607212     36.06778   -24.131427   -311767.13 
   31950    54.852039    163231.43     72.29071    72.290711    36.066847          120    15792.109    18090.826   -34326.032    358.70691   -1199.9492      669.733     72.29071    62.605592    36.066847   -147.69897   -311767.73 
   32000    54.496353    163214.51    72.288212    72.288213      36.0656          120    15831.311    17896.408   -33444.811    257.01443   -812.07425     651.0326    72.288212    62.603429      36.0656    94.302909   -311767.96 
   32050    54.792437    163214.66    72.288235    72.288235    36.065611          120    16586.007    18179.692   -33280.725    566.10092   -1042.5251    675.01015    72.288235    62.603448    36.065611     494.9916   -311769.04 
   32100    55.000137    163241.12     72.29214     72.29214     36.06756          120    15993.741    18106.074   -33446.068    208.40719   -672.75108    331.93178     72.29214     62.60683     36.06756    217.91566   -311768.57 
   32150    54.801609    163273.42    72.296909    72.296909    36.069939          120    16109.281    18259.771   -34509.374     258.3987    -1191.371    487.63823    72.296909     62.61096    36.069939   -46.774002   -311767.82 
   32200    54.983986    163295.23    72.300127    72.300128    36.071545          120    16168.857    18041.108   -33649.631    341.07405   -758.77091    601.38364    72.300127    62.613747    36.071545    186.77786   -311767.53 
   32250    54.757126    163305.46    72.301638    72.301638    36.072298          120    15515.214    17147.056   -35016.259    377.84281   -977.99512     574.8442    72.301638    62.615055    36.072298   -784.66292   -311766.24 
   32300    54.624181    163278.92    72.297719     72.29772    36.070343          120    15595.943    17251.788    -34336.99     148.2465   -800.71496    499.70373    72.297719    62.611662    36.070343   -496.41983    -311765.6 
   32350    54.898224    163225.98    72.289906    72.289906    36.066445          120    16229.634    17941.609   -33885.468    448.50305   -1072.7865    905.74494    72.289906    62.604895    36.066445    95.258346   -311765.75 
   32400    55.631021     163184.9    72.283841    72.283841    36.063419          120    16616.274    18462.271   -33502.668    482.33493   -800.25162    698.67429    72.283841    62.599643    36.063419    525.29251   -311767.45 
   32450    55.327668     163181.2    72.283294    72.283295    36.063147          120    16328.078    18442.494   -33810.428    442.36007   -1143.6437    475.68435    72.283294     62.59917    36.063147    320.04789   -311767.26 
   32500    55.665527     163211.6    72.287782    72.287783    36.065386          120    16377.979    18127.639   -33531.227     308.2958   -564.65834    756.80578    72.287782    62.603056    36.065386      324.797   -311768.27 
   32550    54.671668    163269.42    72.296318    72.296318    36.069644          120    15651.781    17821.983   -34164.456    280.90213   -1075.0668    783.12211    72.296318    62.610448    36.069644   -230.23058   -311766.73 
   32600    54.871463    163314.05    72.302905    72.302906    36.072931          120    15075.389    17163.192   -34793.784   -34.056362   -672.48766    914.69569    72.302905    62.616153    36.072931   -851.73455   -311768.04 
   32650    54.624728    163306.31    72.301762    72.301763    36.072361          120    15311.226    17521.667   -34361.514     311.9416   -887.57088    627.08751    72.301762    62.615164    36.072361   -509.54037   -311767.72 
   32700     54.55771    163261.47    72.295144    72.295144    36.069059          120     16078.51    18129.072    -34279.86    515.45903   -912.76324    517.50886    72.295144    62.609432    36.069059   -24.092495   -311767.84 
   32750    54.922161    163219.59    72.288962    72.288963    36.065974          120    16379.112    18595.887   -33396.047    165.06773   -512.18562    758.88924    72.288962    62.604078    36.065974    526.31721   -311768.44 
   32800    54.795866    163208.84    72.287375    72.287376    36.065183          120    16180.372    18447.317   -33751.989    221.17168   -1034.7918    933.70748    72.287375    62.602704    36.065183    291.90004   -311767.51 
   32850    55.177233    163222.16    72.289341    72.289342    36.066164          120     16635.66    18507.272    -33376.19    368.96953   -1245.2236    1045.9956    72.289341    62.604407    36.066164    588.91425   -311768.15 
   32900    54.867213    163258.13    72.294651    72.294652    36.068813          120    15864.991    17984.505   -34356.709     42.34542   -723.30629    481.65245    72.294651    62.609005    36.068813   -169.07079   -311766.41 
   32950    55.338582    163289.26    72.299246    72.299247    36.071105          120    15797.457    17086.149   -34298.284    344.75662    -880.2794    626.88145    72.299246    62.612984    36.071105   -471.55938    -311766.4 
   33000     55.17628    163297.54    72.300468    72.300468    36.071715          120    15948.575    17352.944   -34523.136    145.82945   -942.16888     724.9501    72.300468    62.614042    36.071715   -407.20567   -311765.94 
   33050     55.42932    163269.61    72.296346    72.296347    36.069658          120    15600.627    17886.855   -33870.879    465.32921   -1084.4678    739.08647    72.296346    62.610473    36.069658   -127.79867   -311767.11 
   33100    55.174644    163223.88    72.289596    72.289597    36.066291          120    16422.906    18462.054   -33906.307     597.3341   -890.16827    466.40915    72.289596    62.604627    36.066291     326.2176    -311767.3 
   33150    54.384641    163196.64    72.285573    72.285574    36.064283          120    16404.232    18343.603   -33272.895    201.36506   -1186.9504    190.28113    72.285573    62.601143    36.064283    491.64709   -311766.52 
   33200    54.834618    163203.24    72.286548    72.286549     36.06477          120    16642.491    18019.965   -33416.102    166.48045   -1137.1711    895.55497    72.286548    62.601988     36.06477    415.45122   -311767.88 
   33250    54.753281    163237.91    72.291666    72.291667    36.067323          120    15837.876    18460.253   -33577.248     211.6038   -782.84949    445.08115    72.291666     62.60642    36.067323     240.2939      -311768 
   33300    54.733288    163283.23    72.298356    72.298357    36.070661          120    15432.334    18026.473   -34378.388    487.33805    -964.1842     595.4774    72.298356    62.612214    36.070661   -306.52717   -311768.02 
   33350    54.161287    163299.84    72.300808    72.300809    36.071885          120    16062.312    17415.134   -34658.926     328.7697   -973.12395    605.55481    72.300808    62.614337    36.071885   -393.82666   -311767.11 
   33400    54.559889    163281.86    72.298154    72.298155    36.070561          120    15950.166    17936.693   -33548.715    214.18417    -880.6612    277.92466    72.298154    62.612039    36.070561    112.71475   -311767.49 
   33450    54.764229    163258.18    72.294659    72.294659    36.068817          120    15953.867    18437.553   -33756.564    293.06377    -840.9635    591.42721    72.294659    62.609012    36.068817    211.61888   -311767.14 
   33500    54.917364    163243.41    72.292478    72.292479    36.067729          120    15893.683    17834.377   -33997.698     76.86557   -669.03832     796.5665    72.292478    62.607123    36.067729   -89.878974    -311766.5 
   33550    54.818878    163231.73    72.290754    72.290754    36.066868          120    16025.672    18145.032   -33771.088    468.89465   -1064.8026     417.0965    72.290754     62.60563    36.066868    133.20545   -311765.96 
   33600    55.260772    163234.38    72.291146    72.291146    36.067064          120    15996.762    18222.315   -34093.495    308.76499    -679.6542    426.76576    72.291146    62.605969    36.067064    41.860862   -311766.76 
   33650    55.399213    163245.32    72.292761    72.292761     36.06787          120    16082.329    17936.406     -33744.3    299.57749   -1340.5953    754.77148    72.292761    62.607368     36.06787    91.478376   -311767.23 
   33700    54.910444    163258.21    72.294663    72.294663    36.068818          120    16031.155    17449.105   -34203.248    344.59554    -843.7272    648.22835    72.294663    62.609015    36.068818   -240.99615   -311766.29 
   33750    55.270584    163259.66    72.294878    72.294878    36.068926          120    15901.603    18171.513   -33878.324    152.36082   -973.36866    648.77904    72.294878    62.609201    36.068926    64.930559   -311767.65 
   33800    55.265225    163264.24    72.295552    72.295553    36.069262          120    16007.262     17874.03   -34011.186    450.51878   -899.53482    604.31347    72.295552    62.609786    36.069262   -43.298117   -311768.27 
   33850    54.434852    163268.88    72.296238    72.296238    36.069604          120    16061.151    18216.704   -33944.258     375.9035   -976.86177    577.93965    72.296238    62.610379    36.069604      111.199   -311766.88 
   33900    54.390841    163272.69      72.2968    72.296801    36.069885          120    16183.968    17511.151   -34703.303    269.71044   -810.48264    589.33189      72.2968    62.610866    36.069885   -336.06111   -311767.51 
   33950     54.66634    163266.52    72.295889     72.29589     36.06943          120    15960.861     18185.35   -34176.048    13.771412   -1121.0515    384.10231    72.295889    62.610077     36.06943   -9.9454528   -311767.99 
   34000     53.94397    163259.02    72.294782    72.294783    36.068878          120    15686.648    17636.034   -33701.313    335.28681   -686.54344    310.12415    72.294782    62.609118    36.068878   -126.21015   -311766.68 
   34050    55.248337    163238.61     72.29177     72.29177    36.067375          120    16059.336    18259.466   -34102.963    504.84511   -974.96314    976.56716     72.29177     62.60651    36.067375    71.946294   -311768.04 
   34100    54.820461    163225.36    72.289814    72.289815      36.0664          120     16388.28    18923.516   -33142.739        77.53   -756.43748    588.42758    72.289814    62.604816      36.0664    723.01879   -311766.67 
   34150    55.311555    163243.83    72.292541    72.292541     36.06776          120     15747.64    18728.851   -33746.743    352.48447   -1057.5014    468.73437    72.292541    62.607177     36.06776    243.24951   -311767.16 
   34200    55.179299    163267.56    72.296043    72.296043    36.069507          120    15446.511    17457.633   -34795.643    376.31301   -1163.2823    950.32821    72.296043     62.61021    36.069507   -630.49981   -311766.05 
   34250    55.521348     163266.6    72.295902    72.295902    36.069437          120    16468.038    18036.693   -33742.561    602.54721   -995.08059    796.47096    72.295902    62.610088    36.069437    254.05672   -311767.05 
   34300    54.713281    163268.96     72.29625    72.296251    36.069611          120    15840.245    17594.586   -34186.541    230.15582   -1019.9982    571.98685     72.29625     62.61039    36.069611   -250.57017   -311765.93 
   34350    55.449065    163258.74    72.294741    72.294742    36.068858          120    15873.994    17779.979    -34200.15    228.89492   -974.74132    450.84777    72.294741    62.609083    36.068858   -182.05888   -311767.74 
   34400    55.062773    163250.86    72.293578    72.293579    36.068278          120    15679.068    17946.641   -33283.328    485.69363   -713.49457    719.35226    72.293578    62.608076    36.068278    114.12715   -311767.53 
   34450    54.897919    163249.38     72.29336     72.29336    36.068168          120    15395.358    17526.395   -34872.558    104.55985   -767.40578    612.70357     72.29336    62.607887    36.068168   -650.26845   -311767.74 
   34500    54.847629    163228.92     72.29034     72.29034    36.066662          120    16627.747    18442.221   -33819.865     229.9271   -758.91572    636.07526     72.29034    62.605271    36.066662    416.70093   -311768.48 
   34550    54.511043    163228.29    72.290246    72.290246    36.066615          120    15950.748    18037.024   -34062.106    255.38267   -767.50352    713.07602    72.290246     62.60519    36.066615   -24.777905   -311767.79 
   34600    54.157243    163237.78    72.291647    72.291648    36.067314          120    16106.488    18188.827    -33681.15    230.63221   -1016.7743    772.37011    72.291647    62.606404    36.067314    204.72138   -311767.08 
   34650    54.682037    163255.46    72.294257    72.294257    36.068616          120    16058.477    18269.353   -33619.421       376.01   -1046.1049    875.02835    72.294257    62.608664    36.068616    236.13632   -311767.59 
   34700    54.929044    163269.48    72.296327    72.296327    36.069649          120    15342.998    17638.157   -34390.437    274.66578   -1096.1768    441.63402    72.296327    62.610456    36.069649   -469.76073   -311767.86 
   34750    55.352884    163257.83    72.294607    72.294607    36.068791          120    16167.591    17890.653   -34236.652    273.73437     -1136.87    640.85351    72.294607    62.608967    36.068791   -59.469414   -311767.63 
   34800    55.406443    163249.94    72.293442    72.293442    36.068209          120    16584.641    18081.791   -34298.373     424.1476   -1257.2737    801.75595    72.293442    62.607958    36.068209    122.68645   -311767.14 
   34850    55.385737    163265.94    72.295804    72.295804    36.069388          120    15863.837    18153.216   -34188.308    438.95412   -567.11284    420.46695    72.295804    62.610003    36.069388   -57.084961   -311766.67 
   34900    55.682091    163277.69    72.297539    72.297539    36.070253          120    15652.407     17622.69   -33848.573    446.08299   -926.17057    532.38978    72.297539    62.611506    36.070253   -191.15889   -311767.31 
   34950    55.479426    163267.41    72.296021    72.296021    36.069496          120    15288.076    18176.849    -34678.02    532.65336   -687.70674    451.41045    72.296021    62.610191    36.069496   -404.36485   -311767.24 
   35000    54.808085    163240.82    72.292096    72.292097    36.067538          120    16208.112    18283.371   -33430.413     83.22363   -715.16497    784.16553    72.292096    62.606792    36.067538    353.68981   -311766.83 
   35050    54.908981    163235.36     72.29129    72.291291    36.067136          120    16043.293    18086.701   -33686.073   -21.245576    -926.5685     678.2603     72.29129    62.606094    36.067136    147.97368   -311767.65 
   35100    54.577159    163252.36      72.2938    72.293801    36.068388          120    16149.063    18011.687   -33785.107    621.49767   -686.80604    714.25214      72.2938    62.608268    36.068388    125.21397   -311767.65 
   35150    54.423658    163269.99    72.296402    72.296403    36.069686          120    15946.676    18096.209    -33674.29    105.36022   -756.52542    379.56767    72.296402    62.610522    36.069686    122.86475   -311767.25 
   35200      54.5092    163271.18    72.296577    72.296578    36.069774          120    15110.236    17832.149   -33837.948    161.91314   -1135.6956    761.43744    72.296577    62.610673    36.069774     -298.521   -311768.01 
   35250    54.966465    163249.63    72.293396    72.293397    36.068187          120    16177.702    18109.516   -33799.254    221.93846   -763.23319    675.79846    72.293396    62.607918    36.068187    162.65489   -311768.51 
   35300    54.646001    163230.92    72.290634    72.290635    36.066809          120    16226.125     17894.73   -33993.663    296.14631   -897.62894    810.15213    72.290634    62.605526    36.066809    42.397596    -311767.5 
   35350    54.810068    163226.13    72.289927    72.289928    36.066456          120    16013.694    18692.116   -33520.766    339.92879   -1044.2942    224.05309    72.289927    62.604914    36.066456    395.01481   -311767.05 
   35400    55.267988    163246.78    72.292975    72.292976    36.067977          120    15966.164    18345.463   -34354.517    422.67546   -726.31098     483.4461    72.292975    62.607554    36.067977     -14.2964   -311767.03 
   35450    55.432891    163274.67    72.297092    72.297093    36.070031          120     16362.71    17680.788   -33950.297    401.76168   -1059.5521    703.67332    72.297092    62.611119    36.070031    31.066809   -311766.93 
   35500    55.575838    163293.23    72.299832    72.299832    36.071397          120    15730.738    17873.228   -34375.416     119.9592   -1136.3212    395.16267    72.299832    62.613492    36.071397   -257.15002   -311766.96 
   35550    55.596006    163287.46     72.29898     72.29898    36.070972          120    15310.707    17775.586   -34230.335    512.80421   -786.27377    756.21248     72.29898    62.612754    36.070972   -381.34746    -311767.1 
   35600    55.251436    163256.93    72.294474    72.294475    36.068725          120    15927.461    18151.273   -33862.029    130.64676   -875.25317    689.78157    72.294474    62.608852    36.068725    72.234881   -311766.98 
   35650    55.124401    163231.77    72.290759     72.29076    36.066871          120     16171.76    17911.616   -34070.058    156.30572   -998.48462    857.58792    72.290759    62.605635    36.066871    4.4391535   -311767.25 
   35700    55.206453    163226.32    72.289955    72.289956     36.06647          120    16331.951    18073.337   -33972.998    246.98143   -785.05814    1068.1172    72.289955    62.604938     36.06647    144.09655   -311768.18 
   35750    54.502943    163233.01    72.290943    72.290944    36.066963          120    16171.423    17888.882    -33714.55    495.77607   -1011.3078    950.44261    72.290943    62.605794    36.066963    115.25202   -311767.86 
   35800    54.680608     163245.1    72.292728    72.292729    36.067853          120    15992.671    18312.081   -33389.865    477.22326   -1044.7883    852.09701    72.292728     62.60734    36.067853    304.96239   -311768.11 
   35850    54.583094    163266.77    72.295926    72.295927    36.069449          120    15536.244    17594.892   -34081.211    426.08519   -739.47853    657.43596    72.295926    62.610109    36.069449   -316.69137   -311768.04 
   35900    54.231778    163277.15    72.297459    72.297459    36.070213          120    15598.094     18333.43   -33553.594    471.63418   -1270.9667    547.72993    72.297459    62.611436    36.070213    125.97648   -311766.71 
   35950    54.850457    163283.57    72.298406    72.298406    36.070686          120     15461.02    17770.913   -34217.532    567.30089   -587.69909    320.06006    72.298406    62.612257    36.070686   -328.53336    -311767.2 
   36000     55.13059    163273.21    72.296877    72.296877    36.069923          120    15748.192    17738.974   -34193.215    139.24836   -1254.0246    473.67546    72.296877    62.610933    36.069923   -235.34967   -311767.66 
   36050    55.117712     163251.8    72.293717    72.293718    36.068347          120    16164.712     18417.52   -34014.395    178.22439   -789.46201    629.33657    72.293717    62.608196    36.068347    189.27888   -311766.74 
   36100    55.473999       163245    72.292713    72.292714    36.067846          120    16390.213    18014.441   -33859.328     157.8823   -1425.8459    382.93752    72.292713    62.607327    36.067846    181.77514   -311766.77 
   36150    55.403107    163249.68    72.293404    72.293404     36.06819          120    15911.153    17653.908    -34456.35    417.51539   -743.80825    558.63898    72.293404    62.607925     36.06819   -297.09667   -311766.66 
   36200    55.611031     163246.4    72.292919     72.29292    36.067949          120     15974.33    18394.842   -33399.937    126.72859   -1266.3757    671.21555    72.292919    62.607505    36.067949    323.07811   -311767.38 
   36250    55.231743    163253.73    72.294002    72.294002    36.068489          120    15853.866    17820.407   -34087.442    451.67656   -823.46239     827.0191    72.294002    62.608443    36.068489   -137.72287   -311766.75 
   36300    55.491293    163255.12    72.294207    72.294207    36.068591          120    16696.814    17829.641   -33765.938    183.30065   -1012.1544    670.77257    72.294207     62.60862    36.068591     253.5059    -311767.9 
   36350    55.128202    163254.43    72.294104    72.294105     36.06854          120    15688.647    17605.443   -34470.447    95.401728   -456.35337    212.97697    72.294104    62.608532     36.06854   -392.11883   -311768.25 
   36400    54.493959    163240.89    72.292106    72.292107    36.067543          120    16176.485    18428.202   -34059.457     432.3213   -782.25099    454.38887    72.292106    62.606801    36.067543    181.74303   -311768.52 
   36450    54.557336     163242.3    72.292314    72.292315    36.067647          120    16764.102    18426.995   -33466.638     785.8752   -1227.5434    885.20078    72.292314    62.606981    36.067647    574.81969      -311769 
   36500    54.714929    163267.08    72.295973    72.295973    36.069472          120    15627.476    17587.781   -34661.635    269.17968   -702.53893    541.95461    72.295973    62.610149    36.069472   -482.12585   -311769.59 
   36550    54.419908     163278.6    72.297672    72.297673     36.07032          120    15168.412    17163.491   -34104.391    49.503179   -748.21927    766.89811    72.297672    62.611621     36.07032   -590.82941    -311768.6 
   36600    54.719183    163266.14    72.295834    72.295835    36.069403          120    15727.097    17470.826   -34527.437    547.60175   -1129.6571    906.04614    72.295834     62.61003    36.069403   -443.17139   -311768.57 
   36650    55.024805     163233.1    72.290956    72.290957    36.066969          120    17076.686    18066.718   -33425.954     481.8376    -985.7326    952.16321    72.290956    62.605805    36.066969    572.48341    -311768.8 
   36700    55.065384    163224.35    72.289665    72.289665    36.066325          120    16225.503    18731.924   -33857.183    652.62078     -895.194    435.04199    72.289665    62.604687    36.066325     366.7482   -311767.86 
   36750    55.442303    163235.99    72.291384    72.291384    36.067183          120    16433.955    18301.844   -33590.495    317.67251   -1149.6788    926.30536    72.291384    62.606175    36.067183    381.76808   -311767.95 
   36800    55.165043    163257.93    72.294622    72.294623    36.068798          120    15816.649     17318.57   -34225.638     92.30429   -676.87021     941.4001    72.294622     62.60898    36.068798   -363.47316   -311767.04 
   36850    55.809726    163258.94    72.294771    72.294771    36.068872          120    15602.275    18246.876   -34216.966    319.40146   -965.17485    665.87144    72.294771    62.609109    36.068872    -122.6048   -311767.79 
   36900    54.916027    163256.97    72.294481    72.294481    36.068728          120    15699.594    18200.802   -34387.136    503.88935   -834.36319     614.8522    72.294481    62.608857    36.068728   -162.24668   -311766.71 
   36950    55.146116    163255.45    72.294256    72.294257    36.068616          120    16027.824    17726.303   -34277.048    486.06752   -1057.2097    790.13214    72.294256    62.608663    36.068616   -174.30693   -311767.39 
   37000    55.166947     163249.7    72.293407    72.293408    36.068192          120    16161.809    17668.276   -34246.311    254.50591   -762.27707    464.56962    72.293407    62.607928    36.068192   -138.74169   -311768.73 
   37050    54.635439    163243.34    72.292467    72.292468    36.067723          120     15975.13    18085.476   -33546.527    197.75181    -1365.494    705.37272    72.292467    62.607114    36.067723    171.35967   -311768.56 
   37100     54.75143    163246.79    72.292977    72.292977    36.067977          120    16057.376    18416.281   -34206.989    561.66087    -1079.152    743.31052    72.292977    62.607555    36.067977    88.889143    -311769.3 
   37150    54.921897     163250.9    72.293584    72.293585     36.06828          120     15885.61    17844.435   -33775.972    336.85562   -845.99144    504.81248    72.293584    62.608081     36.06828    -15.30911   -311769.73 
   37200    55.231782    163249.91    72.293438    72.293439    36.068208          120    16106.064    17803.075    -34368.84    337.94605   -1134.7881    1044.8458    72.293438    62.607955    36.068208    -153.2337   -311770.03 
   37250    54.182674    163245.06    72.292721    72.292722     36.06785          120    16079.373        17676   -34152.649    574.51094   -1029.6007    521.18378    72.292721    62.607334     36.06785   -132.42515   -311766.97 
   37300    54.848999    163242.46    72.292339    72.292339    36.067659          120    15983.642    18378.107   -34302.738    222.25158   -1032.7966    680.82335    72.292339    62.607003    36.067659    19.670678    -311767.7 
   37350    55.137214     163244.6    72.292654    72.292654    36.067816          120    15778.988     18025.11   -33170.476    625.89095   -878.68742    701.55579    72.292654    62.607275    36.067816    211.20736    -311767.6 
   37400    55.209708    163256.28    72.294378    72.294378    36.068676          120    16102.775    17643.255   -34363.796    170.39628   -1259.9973    730.84656    72.294378    62.608768    36.068676    -205.9222   -311766.79 
   37450    55.301364    163264.32    72.295565    72.295566    36.069269          120     16103.45    17687.503   -34495.846    634.90327   -920.63942    362.09739    72.295565    62.609797    36.069269   -234.96463      -311767 
   37500    55.626456    163252.26    72.293785    72.293786    36.068381          120    15569.201     18098.86   -34042.514    648.24571   -778.27727      1190.53    72.293785    62.608255    36.068381   -124.81772   -311767.83 
   37550    55.447967    163238.51    72.291755    72.291755    36.067368          120    16323.356    18395.005   -33726.523    380.26051   -1129.1324    490.44202    72.291755    62.606497    36.067368    330.61249   -311767.92 
   37600    55.302568     163247.1    72.293023    72.293024       36.068          120    16473.946    17975.165   -33473.021    368.52138   -840.71724     914.0228    72.293023    62.607595       36.068    325.36313   -311768.24 
   37650    55.110759    163265.43    72.295729     72.29573    36.069351          120    16085.571        17811   -34174.526    484.00142    -1229.868    445.36423    72.295729    62.609939    36.069351   -92.651533   -311768.83 
   37700    54.666915    163276.75      72.2974    72.297401    36.070184          120    15778.306    18003.215   -34187.788    485.89535   -787.66738     1005.891      72.2974    62.611386    36.070184   -135.42248   -311768.21 
   37750    54.920468     163271.9    72.296684    72.296685    36.069827          120    15867.077    18011.067   -34095.274    162.84137   -1001.7656    304.96678    72.296684    62.610766    36.069827   -72.376527   -311769.09 
   37800    54.576434     163262.1    72.295237    72.295238    36.069105          120    16354.253    18260.033   -33991.204    427.45079   -906.45188    808.02366    72.295237    62.609513    36.069105    207.69368   -311768.83 
   37850    54.322501    163259.26    72.294818    72.294819    36.068896          120    16270.062    18160.703   -33940.335    835.55616   -1277.6174    547.06207    72.294818     62.60915    36.068896    163.47669   -311767.64 
   37900    55.053167     163261.4    72.295135    72.295135    36.069054          120    15887.507     17412.99   -33896.072    397.44768   -829.49258    838.48295    72.295135    62.609424    36.069054   -198.52516   -311768.79 
   37950    55.131693    163248.92    72.293292    72.293292    36.068135          120    15108.532    17908.778   -34466.188    220.64608   -823.84919     453.6891    72.293292    62.607828    36.068135   -482.95927   -311767.96 
   38000    54.952165    163213.55     72.28807    72.288071    36.065529          120    16377.357     18299.53   -33437.714     551.5997   -1238.2906    932.73582     72.28807    62.603306    36.065529    413.05757   -311766.43 
   38050    55.242426    163199.89    72.286054    72.286055    36.064524          120    17020.379    18451.884   -33676.995    255.86712   -577.04645     681.2255    72.286054     62.60156    36.064524    598.42274   -311767.19 
   38100    55.940874    163223.78    72.289581    72.289581    36.066283          120    16593.397    18340.797   -33700.945    373.54608   -922.05174    786.30904    72.289581    62.604614    36.066283    411.08281   -311768.23 
   38150    55.012106     163273.3    72.296891    72.296891     36.06993          120    15931.736    18141.005   -34304.946     551.0196   -941.17324    624.49721    72.296891    62.610944     36.06993   -77.401553   -311766.68 
   38200     55.39057    163311.63    72.302548    72.302548    36.072752          120     15084.91    17922.267   -34906.627   -137.19083   -670.15173    1006.7522    72.302548    62.615844    36.072752   -633.14984   -311767.89 
   38250    54.668899    163310.83     72.30243     72.30243    36.072693          120    15521.667    17330.941   -34479.425     278.5869   -901.62034    634.67579     72.30243    62.615741    36.072693   -542.27229   -311767.22 
   38300       54.846    163277.45    72.297503    72.297504    36.070236          120    15893.614    17839.544   -33753.451    317.73753   -753.22929    585.13208    72.297503    62.611475    36.070236   -6.7644984   -311768.35 
   38350    54.229926    163235.66    72.291334    72.291335    36.067158          120    15914.201    18020.394   -34246.503    513.53415   -670.04882    272.89606    72.291334    62.606133    36.067158   -103.96923   -311768.26 
   38400    54.200183    163196.78    72.285594    72.285595    36.064294          120    16723.385    18528.761   -32997.604    325.64492   -1016.0295    1012.9556    72.285594    62.601162    36.064294     751.5141   -311768.14 
   38450       54.482    163193.04    72.285042    72.285042    36.064018          120    16461.847    18690.344   -33896.574    382.30648   -1262.6827    629.73897    72.285042    62.600683    36.064018    418.53889   -311769.02 
   38500    54.811323    163214.46    72.288204    72.288205    36.065596          120     16493.36    18457.931   -33402.857    487.60543   -1193.2868    682.39424    72.288204    62.603422    36.065596    516.14466   -311768.61 
   38550    55.354481    163257.96    72.294626    72.294626      36.0688          120    15751.535    18095.359   -34191.184    510.44143   -881.89726    1018.7305    72.294626    62.608983      36.0688   -114.76328   -311768.42 
   38600    55.083847    163290.19    72.299384    72.299384    36.071174          120    15700.434    17860.918   -33979.121    484.45297   -1233.1455    615.85451    72.299384    62.613104    36.071174   -139.25624   -311767.27 
   38650    55.303148    163300.11    72.300848    72.300848    36.071904          120    15340.302    17630.151   -34601.493    627.91344   -939.55102    1078.7953    72.300848    62.614371    36.071904   -543.67975   -311766.96 
   38700    55.859115    163283.64    72.298417    72.298417    36.070691          120    15683.456    17802.653   -34316.509    527.00339   -659.33857    208.35896    72.298417    62.612266    36.070691   -276.79983   -311767.74 
   38750    55.085841    163258.02    72.294635    72.294635    36.068805          120    16407.899    18119.323   -33901.444    635.84166   -871.62377     787.6992    72.294635    62.608991    36.068805    208.59264   -311766.15 
   38800    55.532464    163243.53    72.292497    72.292497    36.067738          120    16100.949    18000.779   -34076.554    480.28226   -859.04251     459.4034    72.292497    62.607139    36.067738    8.3912543   -311767.74 
   38850    55.317474    163233.46     72.29101     72.29101    36.066996          120    16087.059    18077.714   -33623.712     348.6184   -1056.7444    691.19682     72.29101    62.605852    36.066996     180.3537   -311768.03 
   38900    54.785733    163229.42    72.290413    72.290413    36.066698          120    16254.613    18545.483   -33639.656    325.32917   -928.60265    768.14748    72.290413    62.605335    36.066698    386.81335   -311768.67 
   38950    54.745939    163238.84    72.291804    72.291805    36.067392          120    16118.629     18733.86   -33589.693    395.03173   -918.73404    449.33694    72.291804     62.60654    36.067392    420.93193   -311768.68 
   39000    54.441044    163264.67    72.295616    72.295617    36.069294          120     15907.96    18242.601   -34279.767    519.15512   -1210.6328    679.68396    72.295616    62.609841    36.069294   -43.068881   -311768.88 
   39050    54.594872    163282.04    72.298181    72.298181    36.070574          120    15701.391    17620.496   -34224.162     73.19491   -893.10856    427.75316    72.298181    62.612062    36.070574   -300.75825   -311768.95 
   39100    54.221843    163273.08    72.296859    72.296859    36.069914          120    15760.537    17851.743   -34112.261    379.58255    -1027.483    683.34153    72.296859    62.610917    36.069914   -166.66029   -311767.66 
   39150    54.923238     163240.3    72.292019     72.29202    36.067499          120    16421.206    17829.224   -33818.752    449.54954    -1042.761    434.09501    72.292019    62.606726    36.067499    143.89284   -311768.63 
   39200    55.183136    163211.15    72.287716    72.287717    36.065353          120    16697.367    18229.218   -33452.143    440.74024   -830.90059    491.49248    72.287716    62.602999    36.065353    491.48045   -311768.24 
   39250    55.237159     163210.3     72.28759    72.287591     36.06529          120    16303.989    18101.873    -34022.16    157.74886   -1128.5783     578.5919     72.28759     62.60289     36.06529    127.90074   -311767.66 
   39300    55.072866    163226.66    72.290005    72.290006    36.066495          120    16379.731    18276.337   -33595.579    309.05103   -479.40919    938.62287    72.290005    62.604982    36.066495    353.49637   -311766.64 
   39350     55.55362    163262.78    72.295338    72.295338    36.069155          120    15614.404    17767.308   -34191.912    455.97751   -967.77927    734.19825    72.295338      62.6096    36.069155   -270.06681   -311767.43 
   39400    55.032466    163287.36    72.298965    72.298966    36.070965          120    15851.374    17518.485    -34241.22   -29.085895    -642.5206    1046.9164    72.298965    62.612741    36.070965   -290.45374   -311766.45 
   39450    54.986919    163287.49    72.298984    72.298985    36.070975          120    15283.985    17307.843   -34401.451    316.64196   -795.13864    591.55499    72.298984    62.612758    36.070975   -603.20764   -311767.01 
   39500    55.087266    163260.05    72.294934    72.294935    36.068954          120     15796.39    18048.892   -33890.124      399.322   -1036.6598    900.10041    72.294934     62.60925    36.068954   -14.946991   -311767.87 
   39550    54.874894    163233.68    72.291042    72.291042    36.067012          120    16530.068    18457.231   -33764.927    491.72099   -554.88994     427.1289    72.291042    62.605879    36.067012    407.45713   -311768.94 
   39600    54.549907     163227.3      72.2901    72.290101    36.066542          120    16313.159    18342.414   -33582.876    538.03528   -1206.8878    945.18139      72.2901    62.605064    36.066542    357.56597   -311769.19 
   39650    54.229305    163234.66    72.291187    72.291188    36.067085          120    16352.367    18115.453   -34261.202    399.64317   -728.47288    418.11301    72.291187    62.606005    36.067085    68.872459   -311768.65 
   39700    54.907969     163248.3      72.2932    72.293201    36.068089          120    16129.599    18415.644   -34001.824    565.39234   -1245.9462    359.19167      72.2932    62.607749    36.068089    181.13973   -311769.78 
   39750    54.736362    163274.52     72.29707    72.297071     36.07002          120    15979.458    17842.994   -34340.119    330.83405   -1254.8524    843.68553     72.29707      62.6111     36.07002   -172.55584   -311768.71 
   39800     55.05307    163292.11    72.299666    72.299667    36.071315          120    15329.734    17608.308   -34326.627    313.00251   -1051.3747    427.37196    72.299666    62.613348    36.071315   -462.86174   -311768.21 
   39850    54.883529    163280.57    72.297963    72.297963    36.070465          120     15586.47    17667.489   -34214.226    359.40868   -480.40888    694.03766    72.297963    62.611873    36.070465   -320.08905   -311767.26 
   39900    55.591721    163248.31    72.293201    72.293202    36.068089          120    16274.948    18258.226   -33707.608    609.94852   -1028.4941    593.98262    72.293201     62.60775    36.068089     275.1889   -311767.38 
   39950    55.609171    163227.66    72.290153    72.290154    36.066569          120    16362.628    18341.874   -33463.826    612.69551   -1135.1965    730.25322    72.290153     62.60511    36.066569    413.55824   -311767.65 
   40000    55.294218    163226.16    72.289932    72.289932    36.066458          120    15737.282    18153.515   -34066.049    410.40164   -1207.7481    597.70149    72.289932    62.604918    36.066458   -58.417465   -311767.18 
   40050    55.340527    163232.23    72.290829    72.290829    36.066906          120    16004.834    18210.931   -33762.251    303.43564    -1090.567    688.90513    72.290829    62.605695    36.066906     151.1711   -311766.96 
   40100    55.531985    163240.73    72.292083    72.292084    36.067531          120     16145.02    17714.688   -34369.209    400.19504   -874.37045    426.70277    72.292083    62.606781    36.067531   -169.83347   -311768.73 
   40150    55.110644    163238.08    72.291692    72.291692    36.067336          120    16824.544    18306.474   -33503.668    594.29603    -837.4217    728.87243    72.291692    62.606442    36.067336    542.45008   -311768.71 
   40200    55.178876    163251.95    72.293738    72.293739    36.068357          120    16526.587    18248.221   -33485.514     396.9517   -771.02505     875.7352    72.293738    62.608215    36.068357    429.76464   -311769.25 
   40250    54.364501    163285.02    72.298621    72.298621    36.070793          120    15788.918    18063.039    -34187.07    324.93124   -656.21856     513.8864    72.298621    62.612443    36.070793   -111.70422   -311768.37 
   40300    54.451274    163301.44    72.301044    72.301045    36.072002          120    15930.264    17146.679     -34709.2    487.76911   -1191.4989    956.56541    72.301044    62.614542    36.072002   -544.08539   -311768.66 
   40350    54.894246     163286.3    72.298809     72.29881    36.070887          120     15867.61    18244.132   -34110.939    629.76362    -498.8209    298.99506    72.298809    62.612606    36.070887   0.26760352   -311769.33 
   40400    54.579835    163263.54     72.29545    72.295451    36.069211          120    15880.151    18203.503   -34123.377    147.39727   -772.34953     398.9646     72.29545    62.609697    36.069211   -13.241159   -311768.26 
   40450    55.019323    163241.27    72.292162    72.292163    36.067571          120    16396.909    18390.021   -33734.445     428.4578   -607.29519    995.20752    72.292162     62.60685    36.067571     350.8288   -311768.33 
   40500    55.090146    163235.21    72.291268    72.291269    36.067125          120    15718.807    18267.837   -33790.578     271.8868   -1150.3115    941.06041    72.291268    62.606075    36.067125    65.355438   -311767.74 
   40550    55.558041    163240.66    72.292072    72.292073    36.067526          120    16039.883    18218.656   -33862.186    92.290497   -725.28589    534.77286    72.292072    62.606772    36.067526    132.11758   -311767.55 
   40600    55.691636    163248.09     72.29317     72.29317    36.068074          120    16509.775    17697.523   -33884.114    554.94397   -875.56781    607.47144     72.29317    62.607722    36.068074    107.72778   -311767.65 
   40650    55.657846    163252.25    72.293784    72.293785     36.06838          120    15615.758     17678.23   -34278.827    761.71564   -671.33603    735.17763    72.293784    62.608254     36.06838   -328.27976    -311767.8 
   40700    55.423863    163244.67    72.292665    72.292666    36.067822          120    16122.148    18266.205   -33639.359    117.90367   -945.74974    541.59341    72.292665    62.607285    36.067822    249.66477    -311767.6 
   40750    55.203979    163243.01    72.292419     72.29242    36.067699          120    15863.806    18078.686   -33876.683    313.32615   -1246.8007    946.21362    72.292419    62.607072    36.067699    21.936299   -311768.02 
   40800    54.722452    163248.27    72.293196    72.293196    36.068087          120    16296.908    18088.516   -33826.834    769.58862   -573.81304     345.5011    72.293196    62.607745    36.068087    186.19678   -311767.99 
   40850    54.684978    163258.55    72.294714    72.294714    36.068844          120    15852.171    17913.147   -33644.315    248.64513   -903.15097    795.02898    72.294714    62.609059    36.068844    40.334282   -311768.86 
   40900    54.385584    163263.86    72.295497    72.295497    36.069235          120    15627.321    18251.319    -34354.04    238.89417   -1191.0838    575.08092    72.295497    62.609737    36.069235   -158.46664   -311768.74 
   40950    54.645756    163267.21    72.295991    72.295992    36.069481          120    16028.503    18089.022   -34380.321    268.02088   -756.52527    827.65113    72.295991    62.610165    36.069481   -87.598664   -311769.55 
   41000    54.727729    163267.13     72.29598     72.29598    36.069476          120    16334.289    17758.958   -33641.848    455.75456   -795.45386    760.94793     72.29598    62.610156    36.069476    150.46631   -311768.89 
   41050    54.857105    163261.05    72.295082    72.295083    36.069028          120    15956.207     17651.99   -33959.789    497.30837   -1186.7049    707.99779    72.295082    62.609379    36.069028   -117.19738   -311768.84 
   41100    55.179899    163253.58     72.29398    72.293981    36.068478          120    16030.497    17849.824   -34622.044    472.45364   -964.30351    470.60989     72.29398    62.608424    36.068478   -247.24091   -311768.21 
   41150    55.470167    163242.92    72.292405    72.292406    36.067692          120    15805.328    18291.564   -33683.901    326.45875   -1001.9875    944.29152    72.292405     62.60706    36.067692    137.66369   -311768.16 
   41200    55.439726    163236.07    72.291395    72.291395    36.067188          120    16245.202    18694.282    -33599.07    476.35786   -1187.6807     685.2945    72.291395    62.606185    36.067188    446.80457   -311767.44 
   41250    55.008121    163243.55    72.292499      72.2925    36.067739          120    16145.154    17618.482   -34228.601    454.06223   -960.51736    683.72569    72.292499    62.607141    36.067739   -154.98813   -311766.43 
   41300    55.199875    163247.87    72.293137    72.293138    36.068057          120    15642.245    17558.783   -33989.523     518.2356   -810.06732    589.30708    72.293137    62.607694    36.068057   -262.83177      -311767 
   41350    54.991694    163249.57    72.293387    72.293388    36.068182          120    15297.564     18265.86   -33834.552    678.89873   -920.95567    691.29392    72.293387    62.607911    36.068182   -90.375956   -311767.18 
   41400    55.493941    163250.62    72.293542    72.293543    36.068259          120    16297.579    17917.462   -33918.348    649.75938   -842.19631     574.3804    72.293542    62.608045    36.068259    98.897793   -311768.46 
   41450    54.900583    163261.19    72.295103    72.295103    36.069038          120    16153.577     18124.23    -34133.92    97.926659   -1119.8364    806.52392    72.295103    62.609396    36.069038     47.96224   -311768.36 
   41500    54.561172    163279.84    72.297855    72.297856    36.070411          120    16136.348     17806.59   -34190.978    254.16378   -705.88777    673.31866    72.297855     62.61178    36.070411   -82.679951   -311768.04 
   41550    54.399923    163291.35    72.299554    72.299555    36.071259          120    16045.353    17464.666   -34734.976    130.06036   -1007.5097     614.3913    72.299554    62.613251    36.071259    -408.3188   -311768.54 
   41600    54.587229     163285.3    72.298662    72.298663    36.070814          120     15493.41    17695.089   -34577.592    536.20914   -829.47988    606.57135    72.298662    62.612479    36.070814   -463.03088   -311769.37 
   41650    55.050045    163261.19    72.295103    72.295103    36.069038          120    15865.216    18337.137   -33878.345    602.75042   -913.26057    464.55559    72.295103    62.609396    36.069038    108.00284   -311769.39 
   41700     55.20705    163241.46    72.292191    72.292192    36.067585          120    16473.735    17808.603    -34028.01    319.68631   -1001.2386    407.88748    72.292191    62.606874    36.067585    84.775985   -311768.77 
   41750    55.037831    163233.14    72.290962    72.290963    36.066972          120     16234.25    17823.944   -33967.526    366.51319   -1077.5045    732.97025    72.290962     62.60581    36.066972    30.222797   -311768.22 
   41800    54.931703    163236.87    72.291513    72.291514    36.067247          120     15849.18    17530.951   -34212.561    567.40416   -920.46584    811.85954    72.291513    62.606288    36.067247   -277.47682   -311766.83 
   41850    55.691025    163245.27    72.292753    72.292753    36.067866          120    15715.815    18060.753   -33890.818    768.77975   -971.58348    754.14204    72.292753    62.607361    36.067866    -38.08336    -311767.7 
   41900    55.113666    163252.14    72.293767    72.293768    36.068372          120    16212.317    18132.228   -34179.964    150.85327   -877.79103    1094.2971    72.293767     62.60824    36.068372    54.860203   -311766.69 
   41950    55.501749     163257.7    72.294588    72.294588    36.068781          120    16384.317    17984.602   -34012.763    271.26925   -794.88224    988.59866    72.294588     62.60895    36.068781    118.71841   -311767.88 
   42000    55.008725    163263.49    72.295442    72.295443    36.069207          120    15568.634    18319.231   -33958.734    111.49409   -1251.3145    622.36167    72.295442     62.60969    36.069207    -23.62285   -311767.57 
   42050     55.05464    163263.95     72.29551     72.29551    36.069241          120    15742.974    18100.049   -33884.295    484.23264   -665.76372    715.85499     72.29551    62.609749    36.069241   -13.757349   -311768.03 
   42100    54.371644    163258.74    72.294741    72.294742    36.068858          120    16188.979    18081.391   -33838.454    570.05498   -1072.4125    93.824119    72.294741    62.609083    36.068858    143.97211   -311767.46 
   42150    54.464596    163255.03    72.294194    72.294194    36.068585          120    15726.499    18031.775   -34308.185    355.14702   -1035.4235    719.37071    72.294194    62.608609    36.068585   -183.30355    -311768.4 
   42200    54.827392    163248.83    72.293278    72.293278    36.068128          120    15886.931    17909.549   -34440.058    375.39912   -1114.5138    589.06897    72.293278    62.607816    36.068128   -214.52604   -311769.04 
   42250    54.699627    163239.65    72.291923    72.291924    36.067452          120    16478.602    17726.935   -33816.812     501.1607   -1141.3159    696.52353    72.291923    62.606643    36.067452    129.57501   -311768.99 
   42300    54.406643    163232.01    72.290796    72.290796    36.066889          120    15926.287    17729.776   -33885.364    435.84709   -1097.7308    502.72191    72.290796    62.605666    36.066889   -76.433549   -311768.16 
   42350    54.649745    163225.31    72.289807    72.289807    36.066396          120    16462.182    18559.697   -33505.217    511.96416   -1092.5614    800.90838    72.289807     62.60481    36.066396    505.55404   -311767.59 
   42400    55.031585    163239.22    72.291859     72.29186     36.06742          120    16571.608    18085.375   -33978.376    564.24487   -964.71096    659.23822    72.291859    62.606587     36.06742    226.20228   -311767.62 
   42450    55.613646    163260.82    72.295048    72.295048    36.069011          120    15930.228     18002.56   -34061.361    436.66133   -835.50193    829.69122    72.295048    62.609349    36.069011   -42.857518   -311767.75 
   42500    55.133868    163275.85    72.297267    72.297268    36.070118          120    16319.883    18387.547   -33989.439    353.25437   -1113.3207    526.54788    72.297267     62.61127    36.070118    239.33022   -311766.48 
   42550    55.496203    163292.03    72.299655    72.299655    36.071309          120     15666.78    17706.771   -34164.017    384.41447   -796.97966    578.90767    72.299655    62.613338    36.071309   -263.48893   -311766.86 
   42600    55.191252     163295.5    72.300167    72.300167    36.071565          120     15163.74    17055.813   -34936.232    491.45708   -997.38292    774.92341    72.300167    62.613782    36.071565   -905.55964   -311766.89 
   42650    54.806866    163263.13    72.295389    72.295389    36.069181          120    15924.125    17758.024    -34169.58    483.51422   -1104.0432    737.76047    72.295389    62.609644    36.069181   -162.47705   -311767.42 
   42700    54.816028    163230.42     72.29056    72.290561    36.066772          120    16550.848    18387.364   -33511.255    418.37965   -855.48496    811.62505     72.29056    62.605462    36.066772    475.65242    -311768.5 
   42750    54.366113    163224.35    72.289664    72.289665    36.066325          120     16200.35    18183.001   -33628.992    486.59025   -1116.6606    919.73369    72.289664    62.604686    36.066325    251.45278    -311768.4 
   42800    54.394977     163232.9    72.290927    72.290928    36.066955          120    15789.015    17970.904   -34032.346    300.42706   -787.48055    378.09604    72.290927     62.60578    36.066955   -90.809041    -311768.7 
   42850     54.66476    163238.17    72.291704    72.291705    36.067343          120    15798.133    17817.501   -34174.155     399.1925   -934.69658    644.10189    72.291704    62.606453    36.067343   -186.17365   -311768.88 
   42900    54.541988    163234.59    72.291176    72.291177    36.067079          120    16226.868    18302.229   -34162.972    311.52236   -847.58047     820.8894    72.291176    62.605996    36.067079    122.04169   -311768.41 
   42950     54.79413    163242.76    72.292383    72.292383    36.067681          120    16441.647    17967.671   -33960.371    360.98971   -920.34714    706.11742    72.292383    62.607041    36.067681    149.64906   -311768.52 
   43000    55.142021    163260.18    72.294954    72.294954    36.068964          120    15535.684    17740.691   -34184.936    650.62026    -792.0896    1050.7382    72.294954    62.609267    36.068964   -302.85371   -311768.16 
   43050     54.80351    163265.16    72.295689    72.295689     36.06933          120    15698.661     17915.15   -34323.994     464.7019   -840.41303    797.38821    72.295689    62.609904     36.06933   -236.72804   -311766.33 
   43100     55.64692    163256.52    72.294414    72.294414    36.068694          120    15760.895    17618.806   -34000.367    202.86401   -929.83524    823.80438    72.294414    62.608799    36.068694   -206.88861   -311767.31 
   43150    55.919773       163246     72.29286    72.292861    36.067919          120     16137.43    18278.211   -33771.922    503.92492   -895.99433    567.44195     72.29286    62.607454    36.067919    214.57294   -311768.15 
   43200    54.945592    163250.36    72.293505    72.293505    36.068241          120    16691.473    18535.033   -34186.927    438.89344   -1001.1874    828.79474    72.293505    62.608012    36.068241    346.52633   -311766.56 
   43250     55.18281    163272.43    72.296761    72.296762    36.069865          120    15971.153    17878.116    -34234.11    511.44822   -771.94382    438.99035    72.296761    62.610833    36.069865   -128.28004   -311767.27 
   43300    55.245673    163287.62    72.299005    72.299005    36.070985          120    15906.014    17440.184   -34256.041    706.95407   -985.49194    641.63474    72.299005    62.612775    36.070985   -303.28076    -311768.7 
   43350    54.924891    163285.34    72.298667    72.298668    36.070816          120    15594.708    17607.286   -34064.676    234.72606    -710.2601    477.56978    72.298667    62.612483    36.070816   -287.56066   -311768.66 
   43400    54.732386    163260.19    72.294955    72.294956    36.068964          120    15754.217     17856.05   -34054.461    538.96069   -1016.1718    626.05814    72.294955    62.609268    36.068964   -148.06448   -311769.28 
   43450     55.00336    163224.34    72.289663    72.289664    36.066324          120    16182.736    18307.322    -33651.82    307.87592   -715.27253    648.07676    72.289663    62.604685    36.066324    279.41263   -311770.15 
   43500    54.622427    163205.46    72.286876    72.286877    36.064934          120    16361.595    18547.052   -33560.759    176.47866   -647.08051    654.47045    72.286876    62.602272    36.064934    449.29594   -311769.12 
   43550    54.633614    163212.59    72.287929    72.287929    36.065459          120    16073.614    18357.821   -33691.785    436.17017    -1022.012    410.16341    72.287929    62.603183    36.065459    246.55007   -311768.36 
   43600    55.248569    163239.58    72.291913    72.291913    36.067446          120    15789.987    18389.168   -34460.512    257.62587   -735.49848    624.44607    72.291913    62.606633    36.067446   -93.785742   -311768.44 
   43650    55.202688    163259.09    72.294793    72.294794    36.068884          120    15794.522    17929.053   -34016.451     222.0844   -578.09644    578.59596    72.294793    62.609128    36.068884   -97.625198   -311767.75 
   43700    55.500453    163266.55    72.295894    72.295895    36.069433          120    15893.934    18225.497   -33946.519    217.25458   -1018.5571    548.44437    72.295894    62.610082    36.069433    57.637056   -311767.75 
   43750    54.957382    163269.08    72.296268    72.296268    36.069619          120    15748.309    17856.333   -34053.849    562.16749   -928.31079    808.90212    72.296268    62.610405    36.069619   -149.73553   -311766.21 
   43800    55.358332    163262.84    72.295346    72.295347     36.06916          120    16313.049    17853.581    -34100.73    233.31832   -935.83533    515.92963    72.295346    62.609607     36.06916     21.96701   -311766.58 
   43850    55.018155    163261.49    72.295148    72.295148     36.06906          120    16380.881    17613.523    -34000.23     424.0299   -938.14327    293.08593    72.295148    62.609435     36.06906   -1.9418362    -311766.9 
   43900    55.400766    163258.15    72.294654    72.294655    36.068814          120    15824.174    18169.391   -33962.202     641.1432   -997.94753    587.02034    72.294654    62.609008    36.068814    10.454554   -311768.56 
   43950    54.850414    163252.61    72.293836    72.293837    36.068406          120    15869.357    17852.681   -33858.233    333.25426   -785.90549    450.24333    72.293836    62.608299    36.068406   -45.398333   -311768.19 
   44000    54.869583    163241.46     72.29219    72.292191    36.067585          120    16088.417    17866.377   -34497.129    228.55098   -969.92918    847.23044     72.29219    62.606874    36.067585    -180.7784      -311769 
   44050    54.671723    163222.43    72.289381    72.289381    36.066183          120    16764.684    18757.942   -33640.108    150.84188   -972.49736    530.39896    72.289381    62.604441    36.066183    627.50609   -311769.04 
   44100    54.483809    163229.58    72.290436    72.290437     36.06671          120    15820.198    17914.526   -33831.119    306.66236   -938.71119    880.01024    72.290436    62.605355     36.06671   -32.132001   -311769.03 
   44150    54.244396    163246.87    72.292989    72.292989    36.067983          120    16303.868    17739.399   -33613.744    626.66384   -927.39693    498.30023    72.292989    62.607565    36.067983    143.17443   -311768.62 
   44200    54.361496     163269.4    72.296315    72.296316    36.069643          120    16366.431    18033.921   -34163.399    541.43087   -949.00237    901.09899    72.296315    62.610446    36.069643    78.984414   -311767.05 
   44250    55.024101    163287.34    72.298963    72.298963    36.070964          120    15836.583    17563.189   -34583.019    532.70952   -1102.5306    391.66385    72.298963    62.612739    36.070964   -394.41562   -311767.84 
   44300    55.065617    163283.89    72.298453    72.298454     36.07071          120    15912.357    17443.358   -34512.077     493.9655   -926.27796    955.78828    72.298453    62.612298     36.07071   -385.45404   -311766.64 
   44350    54.784593    163259.86    72.294907    72.294907     36.06894          120     15931.26    18040.893   -34504.647    361.43108   -1191.0933     605.6668    72.294907    62.609226     36.06894   -177.49795   -311766.27 
   44400    55.335943    163231.47    72.290716    72.290717     36.06685          120    16081.662      18184.7   -33843.038    418.01236    -1060.977    625.05246    72.290716    62.605597     36.06685    141.10794   -311767.49 
   44450    55.448404    163220.51    72.289098    72.289099    36.066042          120    15698.963    18369.043   -33744.113    320.60459   -784.01823    810.15396    72.289098    62.604196    36.066042    107.96442   -311767.72 
   44500    55.520305    163222.59    72.289404    72.289405    36.066195          120    16471.287    17988.411   -33900.697    134.39299   -1178.0563    520.34501    72.289404    62.604461    36.066195    186.33351   -311768.07 
   44550    55.430886    163237.08    72.291543    72.291544    36.067262          120    16058.335    17989.404   -33967.003    29.316585     -965.723    887.55695    72.291543    62.606314    36.067262    26.912184   -311768.81 
   44600    54.832594     163251.2    72.293629    72.293629    36.068303          120    15886.608    17977.502   -34382.865    279.73167   -984.38176    789.85192    72.293629     62.60812    36.068303    -172.9181   -311768.11 
   44650    54.332309    163254.65    72.294138    72.294139    36.068557          120    15930.419    17539.836   -34349.462     495.1772   -552.24898    857.57758    72.294138    62.608561    36.068557   -293.06884   -311767.56 
   44700    54.613426    163253.51     72.29397     72.29397    36.068473          120    16301.045    17905.824    -33945.08    546.54142   -900.20453    586.26645     72.29397    62.608415    36.068473    87.262982   -311768.54 
   44750    54.606774    163258.66    72.294729     72.29473    36.068852          120      15784.5    17830.639   -34477.117    332.74527   -815.42673    580.74044    72.294729    62.609073    36.068852   -287.32564   -311769.15 
   44800    54.719243    163259.57    72.294864    72.294865    36.068919          120     16431.89    18344.043    -33683.37    256.03234   -1004.9047    628.71918    72.294864    62.609189    36.068919    364.18769   -311768.84 
   44850    54.861799    163274.74    72.297103    72.297103    36.070036          120    15819.871    18200.133   -33757.755    529.93896   -911.29351    977.12157    72.297103    62.611128    36.070036    87.416089   -311768.98 
   44900    55.184637    163280.74    72.297988    72.297989    36.070478          120    15849.876    17527.757   -34295.804    582.95773   -871.75882    217.05256    72.297988    62.611895    36.070478   -306.05704   -311768.16 
   44950    55.062055    163262.58    72.295309    72.295309    36.069141          120    15809.947    17824.877   -34649.008    261.47834   -1137.3888    710.68989    72.295309    62.609574    36.069141   -338.06124   -311767.42 
   45000    55.197241    163228.41    72.290263    72.290264    36.066624          120    15994.494    17885.316   -33995.067     658.6643   -1121.8244    545.43778    72.290263    62.605205    36.066624    -38.41907   -311767.35 
   45050    55.319976    163201.13    72.286237    72.286237    36.064615          120    16468.347    18252.839   -33671.263    532.97252   -577.19467    563.85443    72.286237    62.601718    36.064615    349.97451   -311767.03 
   45100    55.683287    163202.85    72.286491    72.286492    36.064742          120    16519.751    18472.748   -33123.167    432.98685   -731.47171    233.14889    72.286491    62.601938    36.064742    623.11051   -311768.28 
   45150    54.980021    163240.43    72.292038    72.292039    36.067509          120    16557.324    18043.446    -33891.77    311.00689   -1086.3507    676.34274    72.292038    62.606742    36.067509    236.33346   -311767.22 
   45200    55.203592    163290.21    72.299387    72.299387    36.071175          120    15178.737    18215.216   -34867.516    209.81853    -1098.416      417.385    72.299387    62.613106    36.071175   -491.18753   -311768.07 
   45250    54.262867    163319.68    72.303735    72.303736    36.073345          120    15595.099    17725.847   -34616.303    748.62238   -1058.8912    506.84748    72.303735    62.616872    36.073345    -431.7855   -311767.08 
   45300    54.965941    163321.65    72.304026    72.304026     36.07349          120    15460.231    17421.661   -34822.406    584.82448   -1011.5642    554.12297    72.304026    62.617124     36.07349   -646.83793   -311768.65 
   45350    54.631005    163286.11    72.298781    72.298781    36.070873          120    15303.478    17881.602   -34588.958    373.16482   -1286.3376    856.71707    72.298781    62.612581    36.070873   -467.95908   -311768.13 
   45400    54.832132    163223.47    72.289535    72.289535     36.06626          120    16054.655    18010.007   -34233.424    415.39446   -406.66979     826.8303    72.289535    62.604574     36.06626   -56.253754   -311769.21 
   45450     54.35936    163168.23    72.281379     72.28138    36.062191          120    17191.992    18340.219   -33070.867    189.38043   -914.94381    542.60081    72.281379    62.597511    36.062191    820.44789    -311768.4 
   45500    55.322455    163160.96    72.280305    72.280305    36.061655          120    16834.231    18507.905    -33305.81    430.63199   -869.54978    822.83281    72.280305    62.596581    36.061655    678.77553   -311769.76 
   45550    55.007013    163202.91      72.2865    72.286501    36.064746          120    16498.333    18628.039   -33292.273    261.41134   -1016.5826    698.67187      72.2865    62.601946    36.064746    611.36638   -311767.97 
   45600    55.203947       163284    72.298469     72.29847    36.070718          120    15618.774    17868.092   -34023.537     733.6101    -1004.646    562.75417    72.298469    62.612312    36.070718   -178.89028   -311767.25 
   45650    55.354482    163350.96    72.308351    72.308352    36.075648          120    14969.925    17122.578   -35242.641    458.72715   -798.91204    849.72683    72.308351    62.620869    36.075648    -1050.046   -311766.56 
   45700    55.394855    163355.05    72.308955    72.308955    36.075949          120    15200.399    16774.643   -35241.077    247.79673   -643.57021     450.0687    72.308955    62.621392    36.075949   -1088.6782    -311767.1 
   45750    55.335533    163300.79    72.300948    72.300948    36.071954          120    16231.004    17394.704   -34714.914    462.59534   -1321.0642    834.71048    72.300948    62.614458    36.071954   -363.06885   -311767.65 
   45800    54.613253     163232.3    72.290838    72.290839     36.06691          120    16260.544    18515.777     -33912.3     333.4431   -646.52748    692.42055    72.290838    62.605703     36.06691     288.0071    -311766.8 
   45850    55.243188    163188.12    72.284315    72.284316    36.063656          120    16958.073    18390.265   -33269.185    288.70631   -1191.8685     914.5586    72.284315    62.600054    36.063656    693.05116   -311768.76 
   45900    55.247677    163184.35    72.283759     72.28376    36.063379          120    16191.183    17972.774   -33228.521    326.83535   -771.54134    517.03001    72.283759    62.599573    36.063379    311.81179   -311769.94 
   45950    55.111651    163206.74    72.287065    72.287065    36.065028          120    16133.279    18060.191   -33572.269    256.82108   -1237.4137    476.06293    72.287065    62.602435    36.065028    207.06685   -311769.94 
   46000    54.346105    163247.24    72.293043    72.293044    36.068011          120    16074.669    18619.252   -33626.199    507.95056   -879.31052    511.54966    72.293043    62.607613    36.068011     355.9073   -311768.27 
   46050    54.586113    163296.31    72.300286    72.300287    36.071624          120    16182.141    17340.985   -35035.047    232.83288   -835.51863    954.42185    72.300286    62.613885    36.071624   -503.97362   -311768.15 
   46100    54.312262    163316.18    72.303219     72.30322    36.073087          120    15852.248    17338.839   -34265.472    572.41478   -945.43353    426.70138    72.303219    62.616425    36.073087    -358.1283   -311767.21 
   46150    55.201612    163303.37    72.301329    72.301329    36.072144          120    15424.697    17877.213   -34559.573    243.97976   -923.96178    723.42367    72.301329    62.614788    36.072144   -419.22097   -311768.18 
   46200     55.38339    163267.75    72.296071    72.296072    36.069521          120    15740.099     17818.65   -34557.201    336.68004   -851.71011    490.32339    72.296071    62.610235    36.069521   -332.81703   -311768.36 
   46250    55.499583     163228.1    72.290218    72.290218    36.066601          120    16345.507    17708.423   -33693.475    141.36164   -1355.0536    742.37268    72.290218    62.605166    36.066601    120.15193   -311768.82 
   46300    55.904821    163207.31     72.28715     72.28715     36.06507          120    16273.935    18008.958   -33920.095    590.83629   -916.31826    817.60688     72.28715    62.602509     36.06507    120.93258   -311768.96 
   46350    55.154894    163206.39    72.287014    72.287014    36.065002          120      16305.1    18535.263   -33629.734    500.03469   -867.83867    527.53475    72.287014    62.602391    36.065002    403.54288   -311767.24 
   46400    55.420447    163232.56    72.290877    72.290878     36.06693          120    17064.769    18131.017   -34215.521    297.12472   -1300.0287    907.58381    72.290877    62.605737     36.06693    326.75526   -311767.87 
   46450    54.844721    163275.63    72.297234    72.297234    36.070101          120     15806.89    17776.175   -34015.072    450.36331   -647.07798    554.73236    72.297234    62.611242    36.070101   -144.00211   -311767.03 
   46500    55.510982    163311.55    72.302536    72.302537    36.072747          120    15411.389    17522.779   -34788.576    669.81297   -916.43101    997.79931    72.302536    62.615834    36.072747    -618.1361   -311769.21 
   46550    54.877372    163315.37    72.303099      72.3031    36.073028          120     15780.85    17297.636   -34129.246    718.68695   -845.26517    485.46177    72.303099    62.616322    36.073028   -350.25324   -311768.17 
   46600    54.388184     163291.7    72.299607    72.299607    36.071285          120     15553.07    17356.548   -34421.028      565.411   -918.41334    901.57216    72.299607    62.613297    36.071285   -503.80352   -311768.27 
   46650    54.927115    163243.79    72.292534    72.292534    36.067756          120    16337.939    18220.551   -33676.144    144.86933   -921.98255    465.11605    72.292534    62.607171    36.067756    294.11545   -311769.48 
   46700    54.637794     163204.3    72.286705    72.286706    36.064848          120     16112.42    18309.218    -33865.99    547.99075   -932.62597    184.28662    72.286705    62.602124    36.064848    185.21597   -311768.74 
   46750    54.845856    163186.44    72.284067    72.284068    36.063532          120    17013.287    18995.697   -33416.934    324.51429    -1007.398    687.69835    72.284067    62.599839    36.063532    864.01665   -311768.44 
   46800    55.092555    163216.65    72.288529    72.288529    36.065758          120    16497.538    18438.983   -33768.583    484.40089   -1129.9782    640.63723    72.288529    62.603703    36.065758     389.3127   -311768.09 
   46850    55.345548     163267.4     72.29602     72.29602    36.069495          120     15517.31    17457.482   -34816.589    400.81115   -718.42609     878.9604     72.29602     62.61019    36.069495   -613.93264   -311768.17 
   46900    55.678427     163293.3    72.299842    72.299842    36.071402          120    15414.742    17493.146   -33999.686    58.959716   -1106.9954    923.70582    72.299842      62.6135    36.071402   -363.93239   -311768.16 
   46950    54.954757    163298.33    72.300585    72.300586    36.071773          120     16251.33    17935.727    -34194.47    464.75969   -867.68209    563.89699    72.300585    62.614144    36.071773   -2.4711191   -311765.95 
   47000    55.726814    163290.09    72.299368    72.299369    36.071166          120    15633.201     17333.34   -34905.282    597.37785   -1189.5438    515.00849    72.299368     62.61309    36.071166   -646.24716   -311768.08 
   47050    54.757602    163250.95    72.293591    72.293592    36.068284          120    16097.445    17861.079   -34055.503     236.2545   -1039.3759    356.63843    72.293591    62.608087    36.068284   -32.326571   -311767.41 
   47100    55.093052    163216.73     72.28854    72.288541    36.065764          120    16724.648    18862.544   -33599.152    187.99771   -804.68023    313.67004     72.28854    62.603713    36.065764    662.68002    -311768.6 
   47150    54.939772    163221.69    72.289272    72.289272    36.066129          120     16272.75    18043.996   -33891.146    431.88117   -762.74006    850.65126    72.289272    62.604346    36.066129    141.86667   -311768.95 
   47200    54.640364    163244.19    72.292594    72.292594    36.067786          120    16244.348    17459.169   -34234.829    211.45223   -768.25169    961.64718    72.292594    62.607223    36.067786   -177.10412   -311768.19 
   47250    54.692872    163255.25    72.294226    72.294227    36.068601          120    15783.123    17910.832   -34028.901    319.81451   -587.21137    595.75727    72.294226    62.608637    36.068601   -111.64868   -311768.79 
   47300     54.44622    163256.33    72.294386    72.294387     36.06868          120    16155.767     18075.65   -34204.412    602.08185   -1162.5848    1122.5032    72.294386    62.608776     36.06868    9.0017555   -311768.58 
   47350    54.427901    163258.69    72.294734    72.294735    36.068854          120    16172.566    18295.609   -34440.756    326.57475   -583.65198    609.23391    72.294734    62.609077    36.068854    9.1394862   -311767.79 
   47400    54.583851    163260.89    72.295059     72.29506    36.069016          120    16097.914    18086.468   -34032.072    132.86414   -1062.3196    747.47347    72.295059    62.609358    36.069016    50.770224   -311767.83 
   47450    54.815855    163260.71    72.295032    72.295032    36.069003          120    15916.581    17591.685   -34272.246    338.35274    -1088.261    468.10899    72.295032    62.609335    36.069003    -254.6602   -311767.43 
   47500     55.53199    163254.26     72.29408    72.294081    36.068528          120    16469.133    18526.085   -33092.071    641.66942   -1093.2091    499.69948     72.29408    62.608511    36.068528    634.38235   -311768.09 
   47550    55.466396    163269.27    72.296296    72.296296    36.069633          120        15893    17982.897   -34448.332    275.28003   -1204.1319    424.94894    72.296296    62.610429    36.069633    -190.8116   -311767.59 
   47600    55.219078    163269.42    72.296318    72.296318    36.069644          120    15230.164    17269.452   -34646.652    609.96969   -1251.7828     885.2265    72.296318    62.610449    36.069644   -715.67837   -311766.67 
   47650    55.080132    163237.29    72.291575    72.291575    36.067278          120      16317.5    18428.514   -33700.194     398.9201   -999.39489    569.35296    72.291575    62.606341    36.067278    348.60652   -311767.33 
   47700    54.897363    163221.21    72.289202    72.289202    36.066094          120    16454.499    18374.986   -33092.454    433.29251   -1066.5612    871.51812    72.289202    62.604286    36.066094    579.01022   -311768.01 
   47750    55.119295    163235.05    72.291244    72.291245    36.067113          120    16196.645    18071.866   -34175.425    310.15543   -993.88215    923.21314    72.291244    62.606055    36.067113    31.028594   -311768.71 
   47800    54.897145    163252.37    72.293801    72.293801    36.068388          120    16103.614    17840.075    -33880.46     236.5519   -783.69003    665.17786    72.293801    62.608269    36.068388    21.076437   -311768.38 
   47850    55.132483    163268.27    72.296148    72.296148    36.069559          120    16365.297    17608.829   -34073.358    448.20598   -1078.3017    755.55393    72.296148    62.610301    36.069559   -33.077304    -311769.5 
   47900    54.430468    163282.14    72.298195    72.298196    36.070581          120    15750.823    17939.048   -33917.479    579.76135   -844.71767    445.70833    72.298195    62.612074    36.070581   -75.869138   -311768.34 
   47950    54.834465    163286.83    72.298888    72.298888    36.070926          120    15835.447    17706.639    -34636.13    363.17657   -1166.7138    622.70092    72.298888    62.612674    36.070926   -364.68166   -311768.68 
   48000    54.675084    163272.09    72.296712    72.296712    36.069841          120    16115.273    18167.596    -34274.45    342.58229   -847.63675    920.97086    72.296712     62.61079    36.069841    2.8064518   -311767.94 
   48050    55.147556    163253.16    72.293917    72.293918    36.068447          120    15862.416    18261.214   -33582.429    574.12066   -856.16927    547.39629    72.293917    62.608369    36.068447    180.40033   -311768.38 
   48100    54.973199     163240.7    72.292078    72.292079    36.067529          120    16109.095    17860.504   -34485.028    716.82675   -830.48937    916.24437    72.292078    62.606777    36.067529   -171.80966   -311767.43 
   48150    55.430398    163231.91    72.290781    72.290781    36.066882          120    16307.249    18164.637   -33144.161    535.29796   -1383.3053    605.09532    72.290781    62.605653    36.066882    442.57482   -311767.85 
   48200    55.692581    163242.15    72.292293    72.292293    36.067636          120    16277.082    17823.066   -34361.629    227.50962   -861.11067    576.91731    72.292293    62.606962    36.067636   -87.160474   -311768.13 
   48250    55.238395    163248.66    72.293253    72.293254    36.068115          120    15902.273    17687.824   -34404.386    351.09242   -1128.2022    831.74579    72.293253    62.607794    36.068115    -271.4299   -311767.29 
   48300    54.875598    163248.72    72.293262    72.293262    36.068119          120    16024.056    18164.175   -33496.811    401.80665   -858.01851    684.97092    72.293262    62.607802    36.068119    230.47363   -311766.62 
   48350    55.214675    163254.01    72.294043    72.294044    36.068509          120    15949.441    18187.173     -34343.4    539.48406   -631.08608    630.52777    72.294043    62.608479    36.068509   -68.928655   -311768.34 
   48400    54.813792     163264.6    72.295606    72.295606    36.069289          120    16235.286    17406.895   -34321.511    453.88437   -991.70222    736.40957    72.295606    62.609832    36.069289   -226.44344   -311767.68 
   48450    54.985296    163275.34    72.297192    72.297192     36.07008          120    16197.674    17891.835   -34437.555    413.79636   -914.22768    879.65004    72.297192    62.611205     36.07008   -116.01533   -311768.63 
   48500    54.352437    163276.71    72.297393    72.297394    36.070181          120    15946.594    18168.213   -33468.467    678.33842    -565.8987    718.16624    72.297393     62.61138    36.070181    215.44642   -311768.33 
   48550    54.521078    163278.47    72.297654    72.297654    36.070311          120    15705.018    17529.697   -34476.382    17.530499   -960.63106    730.07498    72.297654    62.611605    36.070311   -413.88914    -311768.4 
   48600    54.542888     163267.5    72.296034    72.296035    36.069503          120    15944.445    17673.783   -33771.181    602.08823   -1002.0335    593.36563    72.296034    62.610203    36.069503   -50.984217   -311768.16 
   48650    54.833627    163252.68    72.293847    72.293847    36.068411          120    15430.332    17500.684    -34718.82    404.92207   -653.18174    480.03643    72.293847    62.608308    36.068411   -595.93452   -311768.54 
   48700    55.521577    163219.26    72.288913    72.288913     36.06595          120    16680.492    18302.288   -33657.665    476.18249   -1093.9318    920.08513    72.288913    62.604035     36.06595    441.70461   -311768.96 
   48750    55.474264       163198    72.285775    72.285776    36.064384          120    16369.029    18789.501   -33222.346      568.163   -841.22606    864.75819    72.285775    62.601318    36.064384     645.3946   -311768.51 
   48800     55.59915    163218.82    72.288849     72.28885    36.065918          120    16357.761    18272.247   -34062.287    397.97304   -1117.0808    778.06828    72.288849     62.60398    36.065918    189.24037   -311768.25 
   48850    55.736438    163260.16     72.29495    72.294951    36.068962          120    16059.116    18131.232    -33952.97    223.91081   -1228.1901    685.45769     72.29495    62.609264    36.068962     79.12613   -311768.19 
   48900    54.991204    163298.73    72.300643    72.300644    36.071802          120    15626.973    17632.633   -34581.847    196.16563   -898.80541    806.85011    72.300643    62.614195    36.071802   -440.74711   -311766.76 
   48950     55.23669    163312.29    72.302644    72.302645    36.072801          120    15634.389    17541.325   -34508.186    606.26478   -754.37936    720.91305    72.302644    62.615927    36.072801   -444.15721   -311767.37 
   49000    55.532227    163293.14    72.299818    72.299819     36.07139          120    15915.469    17719.437   -34011.542    531.61723    -830.1067    537.22789    72.299818     62.61348     36.07139   -125.54513   -311768.76 
   49050    54.904209    163256.32    72.294384    72.294385     36.06868          120    15703.387     18183.98   -33522.689    497.92079   -955.58022    636.05562    72.294384    62.608774     36.06868    121.55926   -311768.45 
   49100    54.974284    163233.91    72.291076    72.291077    36.067029          120    16271.968    17943.838    -33619.12    457.51804   -1140.4631    686.36486    72.291076    62.605909    36.067029    198.89557   -311769.13 
   49150     54.83503    163232.03    72.290798    72.290799     36.06689          120    16155.684    17972.244   -34324.814    308.05926   -873.81076    582.15455    72.290798    62.605668     36.06689   -65.628457   -311769.29 
   49200    54.519645    163233.87    72.291071    72.291071    36.067026          120    16425.055    18386.395   -33988.877    436.22608   -1146.8779    687.32409    72.291071    62.605904    36.067026    274.19099   -311768.22 
   49250    54.651247    163245.56    72.292796    72.292797    36.067887          120    16086.292    18099.054   -33624.339    562.42772   -974.31901    734.42189    72.292796    62.607399    36.067887    187.00278   -311768.57 
   49300    54.956946    163257.94    72.294623    72.294624    36.068799          120    16010.326    17931.561   -34033.659    422.51785   -707.43012     549.1363    72.294623    62.608981    36.068799   -30.590465    -311768.3 
   49350     54.88411    163261.53    72.295153    72.295154    36.069063          120    16371.054    17522.164   -34239.522    224.17524   -1370.3573    622.58208    72.295153     62.60944    36.069063    -115.4346   -311767.22 
   49400    55.406934     163258.9    72.294765    72.294766     36.06887          120    15959.555    17705.507   -34037.801    523.13808   -955.05726    649.56429    72.294765    62.609104     36.06887   -124.24655    -311767.8 
   49450     55.59041    163246.39    72.292919    72.292919    36.067948          120     16184.88    18387.709   -34061.169    403.39709   -937.54087    613.24244    72.292919    62.607505    36.067948    170.47313   -311768.18 
   49500    55.468503    163246.36    72.292914    72.292915    36.067946          120    16350.066    18248.493   -33832.613     375.9372   -1181.4536    509.97312    72.292914    62.607501    36.067946    255.31527   -311767.69 
   49550    55.170577    163259.76    72.294892    72.294892    36.068933          120    16527.381      17825.8   -34049.442    453.05564   -923.55335    790.27601    72.294892    62.609214    36.068933    101.24644   -311767.28 
   49600    55.168859     163268.9    72.296241    72.296241    36.069606          120    15689.319    17917.051   -34380.574    444.21941    -1076.176     707.3903    72.296241    62.610382    36.069606   -258.06793   -311767.91 
   49650    55.101322    163260.93    72.295065    72.295066    36.069019          120    15955.321    18339.656   -33881.756    234.09696   -945.59646    982.93698    72.295065    62.609363    36.069019    137.74055   -311768.32 
   49700    54.418773    163256.54    72.294417    72.294417    36.068696          120    16083.813    18093.675   -33888.979    313.46987   -371.63869    456.19243    72.294417    62.608802    36.068696    96.169757   -311767.91 
   49750    54.163615    163258.93    72.294769     72.29477    36.068872          120    16068.624     17903.38   -34054.841    580.39053   -762.22181     774.4623    72.294769    62.609107    36.068872   -27.612087   -311767.37 
   49800     54.38668    163255.35    72.294241    72.294241    36.068608          120    15549.378    18333.529    -34122.53    398.27957   -850.55768    666.08678    72.294241     62.60865    36.068608   -79.874321   -311768.27 
   49850    54.246622     163246.5    72.292935    72.292935    36.067956          120    16328.897    17560.417   -33930.115     475.9143   -975.78789    537.67064    72.292935    62.607519    36.067956   -13.600327    -311767.7 
   49900    54.795888    163242.56    72.292353    72.292353    36.067666          120     16227.83     18697.45   -33735.842    367.91225    -902.5354    750.70556    72.292353    62.607015    36.067666    396.47931   -311768.32 
   49950    54.869973    163257.82    72.294605    72.294606     36.06879          120    15789.139    17976.159   -34278.823    476.09977   -1120.0493    859.08997    72.294605    62.608965     36.06879    -171.1753   -311767.33 
   50000    55.444344    163267.18    72.295987    72.295987    36.069479          120    15979.143    17774.435   -34381.212    445.61167   -830.35678     887.4301    72.295987    62.610162    36.069479   -209.21139   -311768.09 
Loop time of 1871.93 on 16 procs for 50000 steps with 14848 atoms

Performance: 2.308 ns/day, 10.400 hours/ns, 26.710 timesteps/s
100.0% CPU use with 16 MPI tasks x 1 OpenMP threads

MPI task timing breakdown:
Section |  min time  |  avg time  |  max time  |%varavg| %total
---------------------------------------------------------------
Pair    | 1610       | 1644       | 1675.9     |  39.5 | 87.82
Bond    | 0.0080388  | 0.010421   | 0.01614    |   1.9 |  0.00
Kspace  | 122.28     | 153.85     | 187.75     | 128.8 |  8.22
Neigh   | 0.63476    | 0.64966    | 0.69357    |   1.6 |  0.03
Comm    | 31.226     | 31.497     | 31.729     |   2.5 |  1.68
Output  | 0.073365   | 0.081146   | 0.082924   |   0.8 |  0.00
Modify  | 18.608     | 29.982     | 39.646     | 166.9 |  1.60
Other   |            | 11.88      |            |       |  0.63

Nlocal:    928 ave 938 max 912 min
Histogram: 1 0 0 3 0 4 3 0 3 2
Nghost:    16284.9 ave 16306 max 16264 min
Histogram: 3 1 1 2 0 3 0 3 1 2
Neighs:    865837 ave 874832 max 848387 min
Histogram: 1 0 0 1 2 2 4 0 2 4

Total # of neighbors = 13853398
Ave neighs/atom = 933.014
Ave special neighs/atom = 0
Neighbor list builds = 18
Dangerous builds = 0
unfix           2
variable        probeTemp delete

Total wall time: 0:31:12
