LAMMPS (16 Mar 2018)
# Fin dminimud floating point parameter in input script or data file (../fix_nh.cpp:132)energy for Beryl

#----- Initialize Simulation -----
clear
units 		metal
boundary 	p p p
atom_style 	full
bond_style	none
variable	etol equal 1e-25
variable 	ftol equal 1e-25
variable 	maxiter equal 5000
variable 	maxeval equal 10000
variable	probeTemp equal 618

#----- Create Atoms -----
read_data 	beryl.mod
  triclinic box = (0 0 0) to (9.208 7.97436 18.376) with tilt (-4.604 0 0)
  1 by 1 by 1 MPI processor grid
  reading atoms ...
  116 atoms
  0 = max # of 1-2 neighbors
  0 = max # of 1-3 neighbors
  0 = max # of 1-4 neighbors
  1 = max # of special neighbors
replicate 	8 8 2
  triclinic box = (0 0 0) to (73.664 63.7949 36.752) with tilt (-36.832 0 0)
  1 by 1 by 1 MPI processor grid
  14848 atoms
  0 = max # of 1-2 neighbors
  0 = max # of 1-3 neighbors
  0 = max # of 1-4 neighbors
  1 = max # of special neighbors
  Time spent = 0.00490284 secs

#----- Define Interatomic Potential -----
include 	potential_main.mod
kspace_style 	pppm 1.0e-4

# Neighbor Style
neighbor	0.3 bin
neigh_modify	delay 0 every 1 check yes

# Minimization style
min_style	cg

# Setup Output
thermo		10
thermo_style	custom	step temp vol cella cellb cellc cellgamma pxx pyy pzz pxy pxz pyz lx ly lz press pe #c_eatoms
thermo_modify	norm no
variable 	myVol equal vol
variable	myCella equal cella
variable	myCellb equal cellb
variable	myCellc equal cellc
variable	myCellgamma equal cellgamma
include 	potential_beryl.mod
# Potential Paramters
pair_style 	hybrid/overlay morse 5.5 buck 5.5 lj/cut/coul/long 5.5 15.0
pair_coeff    1    1 morse     		  0 	       0           0  # Be Be
pair_coeff    1    1 buck                 0            1           -201.0
pair_coeff    1    1 lj/cut/coul/long	  10120.	0.413
pair_coeff    1    2 morse     		  0 	       0           0  # Be Al
pair_coeff    1    2 buck                 0            1           0
pair_coeff    1    2 lj/cut/coul/long	  0	       0
pair_coeff    1    3 morse     		  0 	       0           0  # Al Si
pair_coeff    1    3 buck                 0            1           0
pair_coeff    1    3 lj/cut/coul/long	  0	       0
pair_coeff    1    4 morse 		  0.239919     2.527420    1.815405	#Be O
pair_coeff    1    4 buck                 0.000000     1.000000   -46.00000
pair_coeff    1    4 lj/cut/coul/long     529.000      0.528
pair_coeff    2    2 morse     		  0 	       0           0  # Al Al
pair_coeff    2    2 buck                 0            1           -492.
pair_coeff    2    2 lj/cut/coul/long	  60423		0.356
pair_coeff    2    3 morse     		  0 	       0           0  # Al si
pair_coeff    2    3 buck                 0            1           0
pair_coeff    2    3 lj/cut/coul/long	  0	       0
pair_coeff    2    4 morse 		  0.361581     1.900442    2.164818	#Al O
pair_coeff    2    4 buck                 0.000000     1.000000   -71.5
pair_coeff    2    4 lj/cut/coul/long     1420.0	0.482
pair_coeff    3    3 morse     		  0 	       0           0  # Si Si
pair_coeff    3    3 buck                 0            1           -282.
pair_coeff    3    3 lj/cut/coul/long	  19730		0.391
pair_coeff    3    4 morse 		  0.340554     2.006700    2.100000	#Si O
pair_coeff    3    4 buck                 0.000000     1.000000   -60.5
pair_coeff    3    4 lj/cut/coul/long     916.		0.504
pair_coeff    4    4 morse     		  0.042395     1.379316    3.618701  # O O
pair_coeff    4    4 buck                 0.000000     1.000000   -16.7
pair_coeff    4    4 lj/cut/coul/long	  3.16		1.05
#------ Define Settings -----

# ----- Run Minimization -----
#minimize	1e-25 1e-25 5000 10000 # Performs actual minimization

#include		calcLatticeParams.mod

reset_timestep	0
timestep	0.0001
velocity       	all create ${probeTemp} 87287 loop geom
velocity       	all create 618 87287 loop geom
fix		1 all npt temp ${probeTemp} ${probeTemp} 0.1 iso 1.013 1.013 5.0
fix		1 all npt temp 618 ${probeTemp} 0.1 iso 1.013 1.013 5.0
fix		1 all npt temp 618 618 0.1 iso 1.013 1.013 5.0
run		5000 # Warmup
PPPM initialization ...
WARNING: System is not charge neutral, net charge = -0.2048 (../kspace.cpp:302)
  using 12-bit tables for long-range coulomb (../kspace.cpp:321)
  G vector (1/distance) = 0.201681
  grid = 36 50 24
  stencil order = 5
  estimated absolute RMS force accuracy = 0.00105653
  estimated relative force accuracy = 7.33721e-05
  using double precision FFTs
  3d grid and FFT values/proc = 65395 43200
Neighbor list info ...
  update every 1 steps, delay 0 steps, check yes
  max neighbors/atom: 2000, page size: 100000
  master list distance cutoff = 15.3
  ghost atom cutoff = 15.3
  binsize = 7.65, bins = 15 9 5
  3 neighbor lists, perpetual/occasional/extra = 3 0 0
  (1) pair morse, perpetual
      attributes: half, newton on
      pair build: half/bin/newton/tri
      stencil: half/bin/3d/newton/tri
      bin: standard
  (2) pair buck, perpetual, copy from (1)
      attributes: half, newton on
      pair build: copy
      stencil: none
      bin: none
  (3) pair lj/cut/coul/long, perpetual, copy from (1)
      attributes: half, newton on
      pair build: copy
      stencil: none
      bin: none
Per MPI rank memory allocation (min/avg/max) = 145.7 | 145.7 | 145.7 Mbytes
Step Temp Volume Cella Cellb Cellc CellGamma Pxx Pyy Pzz Pxy Pxz Pyz Lx Ly Lz Press PotEng 
       0          618    172711.88       73.664    73.664001       36.752          120   -196931.26   -197039.12   -268562.71    49.960432   -15.714946     21.01823       73.664    63.794896       36.752   -220844.36   -308813.26 
      10    613.36493    172711.57    73.663956    73.663956    36.751978          120   -197207.18   -197394.32   -268287.03    67.756447   0.25152827   -10.515006    73.663956    63.794858    36.751978   -220962.84    -308819.7 
      20    599.78367    172710.63    73.663822    73.663823    36.751911          120   -196987.28   -197225.59   -267291.87    92.860692    10.188438   -31.329024    73.663822    63.794742    36.751911   -220501.58   -308795.97 
      30    579.26306    172709.07    73.663601    73.663601    36.751801          120   -196649.25   -196913.02   -265688.21    116.44905    12.256446   -53.683834    73.663601     63.79455    36.751801   -219750.16   -308758.08 
      40    554.84323    172706.89    73.663291    73.663291    36.751646          120   -196247.93   -196514.49   -263485.75     135.5545    10.428327    -76.98664    73.663291    63.794282    36.751646   -218749.39    -308711.9 
      50    530.16647    172704.09    73.662893    73.662894    36.751448          120   -195836.24   -196090.44   -260733.95    150.46834    3.6997973   -104.37276    73.662893    63.793937    36.751448   -217553.54   -308664.63 
      60    508.97144    172700.68    73.662408    73.662408    36.751206          120   -195463.44   -195690.81   -257500.72    159.68974   -2.4474906   -129.64793    73.662408    63.793517    36.751206   -216218.32   -308623.73 
      70     494.5865    172696.66    73.661836    73.661836     36.75092          120   -195169.53   -195363.18   -253845.13    159.62087    -12.12074   -156.23299    73.661836    63.793022     36.75092   -214792.61   -308595.96 
      80    489.49105    172692.03    73.661178    73.661178    36.750592          120   -194975.01   -195130.44   -249819.37    158.62099   -21.555417   -184.07171    73.661178    63.792452    36.750592   -213308.27   -308586.31 
      90    495.00861     172686.8    73.660434    73.660434    36.750221          120   -194862.52   -194988.86   -245465.76    152.15969       -27.52   -215.01757    73.660434    63.791807    36.750221   -211772.38   -308597.26 
     100    511.17971    172680.96    73.659605    73.659605    36.749807          120   -194805.49   -194907.01   -240805.77    143.51581   -30.220536   -245.56062    73.659605     63.79109    36.749807   -210172.76   -308628.82 
     110    536.82187    172674.54    73.658691    73.658692    36.749351          120   -194764.27   -194837.55   -235849.48    130.55911   -32.597133   -281.55434    73.658691    63.790299    36.749351   -208483.77   -308678.72 
     120    569.76181    172667.53    73.657694    73.657695    36.748854          120   -194679.96   -194725.07   -230603.38    115.33215   -36.882269   -318.70474    73.657694    63.789435    36.748854   -206669.47   -308742.78 
     130    607.19467    172659.94    73.656614    73.656615    36.748315          120   -194487.58   -194518.08   -225069.33    98.722169   -46.601306   -353.75666    73.656614      63.7885    36.748315   -204691.66   -308815.79 
     140    646.10298    172651.76    73.655452    73.655453    36.747735          120   -194129.57   -194148.01   -219233.36    82.855038   -60.113546   -386.01607    73.655452    63.787493    36.747735   -202503.65   -308891.77 
     150     683.6771    172643.02    73.654209     73.65421    36.747115          120   -193563.58    -193561.6   -213095.96    69.438107   -79.721528   -418.57268    73.654209    63.786417    36.747115   -200073.71    -308965.5 
     160    717.67273    172633.71    73.652885    73.652886    36.746455          120   -192734.76   -192717.03   -206656.58    57.282229   -102.89068   -447.49946    73.652885    63.785271    36.746455   -197369.46   -309032.38 
     170    746.65791    172623.85    73.651483    73.651483    36.745755          120   -191610.48    -191574.5   -199929.53    51.505539   -132.68055   -476.61024    73.651483    63.784056    36.745755    -194371.5   -309089.43 
     180    770.12028    172613.44    73.650002    73.650003    36.745016          120   -190192.08   -190126.07   -192944.92    52.452207   -168.12735   -500.94849    73.650002    63.782774    36.745016   -191087.69   -309136.18 
     190    788.41371     172602.5    73.648446    73.648446     36.74424          120   -188458.48   -188364.03   -185736.08    55.475004   -207.02355   -523.58729    73.648446    63.781425     36.74424   -187519.53    -309173.1 
     200    802.56765    172591.02    73.646814    73.646814    36.743425          120   -186408.11   -186281.32      -178352    61.187163   -248.21459   -538.33445    73.646814    63.780012    36.743425   -183680.48    -309202.2 
     210    813.97848    172579.03    73.645108    73.645109    36.742575          120    -184037.1   -183879.74   -170828.91    67.808007   -286.44796    -553.6732    73.645108    63.778535    36.742575   -179581.92   -309225.92 
     220    824.05339    172566.54    73.643331    73.643332    36.741688          120    -181360.2   -181170.91   -163211.67    76.461822   -325.81909   -572.16757    73.643331    63.776996    36.741688   -175247.59   -309247.39 
     230    833.85811    172553.56    73.641484    73.641485    36.740767          120   -178366.42   -178157.09   -155518.56    81.937556   -368.06782   -581.37194    73.641484    63.775397    36.740767   -170680.69   -309268.33 
     240    843.84707     172540.1     73.63957     73.63957    36.739811          120   -175055.91   -174832.48   -147761.81    79.825075   -409.42064   -585.27582     73.63957    63.773739    36.739811    -165883.4   -309289.56 
     250    853.72196    172526.18    73.637589    73.637589    36.738823          120   -171435.08   -171213.36   -139925.76    70.967653   -453.95266   -583.87078    73.637589    63.772023    36.738823   -160858.07   -309310.72 
     260    862.46003     172511.8    73.635544    73.635545    36.737803          120   -167498.05   -167294.33   -131980.76    49.904884   -509.88085   -585.82736    73.635544    63.770252    36.737803   -155591.05   -309329.49 
     270    868.50725       172497    73.633438    73.633438    36.736752          120   -163270.34   -163083.57   -123889.96    13.990457   -573.16437   -578.98874    73.633438    63.768428    36.736752   -150081.29   -309343.15 
     280    870.08652    172481.78    73.631272    73.631273    36.735672          120   -158757.74   -158611.57   -115612.94   -27.979896   -647.64123   -572.06698    73.631272    63.766553    36.735672   -144327.41   -309348.25 
     290    865.57803    172466.16     73.62905     73.62905    36.734563          120   -153999.97      -153895   -107138.37   -88.255255   -740.52208   -559.65155     73.62905    63.764628    36.734563   -138344.45   -309341.75 
     300    853.89147    172450.16    73.626773    73.626773    36.733427          120   -149027.52   -148980.01    -98482.21   -159.71209    -837.0867    -543.5911    73.626773    63.762656    36.733427   -132163.25   -309321.66 
     310    834.76121     172433.8    73.624444    73.624444    36.732265          120   -143894.14   -143898.26   -89652.596   -242.73606    -928.8221   -533.71796    73.624444    63.760639    36.732265      -125815   -309286.82 
     320    808.90168    172417.09    73.622066    73.622067    36.731079          120   -138671.28   -138727.16    -80733.23   -335.24441   -1017.5195   -521.99903    73.622066     63.75858    36.731079   -119377.22   -309238.99 
     330    777.99682    172400.06    73.619642    73.619642    36.729869          120   -133427.18   -133546.16   -71839.893      -435.73   -1094.3913   -508.63719    73.619642    63.756481    36.729869   -112937.74   -309181.78 
     340    744.50266    172382.73    73.617174    73.617175    36.728638          120   -128229.98   -128404.64   -63080.613   -541.29365    -1153.479   -497.45127    73.617174    63.754344    36.728638   -106571.74    -309119.2 
     350    711.29794     172365.1    73.614665    73.614666    36.727386          120   -123148.14   -123367.97   -54613.017   -646.20423   -1194.3065   -486.62306    73.614665    63.752171    36.727386   -100376.37   -309057.13 
     360    681.25292    172347.21    73.612118    73.612119    36.726115          120   -118229.36    -118496.6   -46564.237   -751.60092   -1214.0873   -483.19419    73.612118    63.749965    36.726115   -94430.064   -309000.96 
     370    656.79353    172329.07    73.609536    73.609536    36.724827          120   -113503.04   -113823.69   -39050.087   -846.52593   -1215.7278   -483.23444    73.609536    63.747728    36.724827   -88792.273    -308955.2 
     380    639.53994     172310.7    73.606919     73.60692    36.723522          120   -108988.67    -109373.6   -32163.267   -939.28067   -1203.1533   -485.86963    73.606919    63.745463    36.723522   -83508.514   -308923.08 
     390    630.09154    172292.11    73.604272    73.604273    36.722201          120   -104685.84   -105152.96    -25960.83   -1016.9751   -1176.2738    -498.3403    73.604272     63.74317    36.722201   -78599.874   -308905.98 
     400    627.99563    172273.32    73.601597    73.601597    36.720866          120    -100574.1   -101131.17   -20452.589   -1079.7558   -1137.0384   -518.39217    73.601597    63.740853    36.720866   -74052.618   -308902.56 
     410    631.92274    172254.34    73.598894    73.598894    36.719518          120   -96638.023   -97308.148   -15628.054   -1121.8014   -1087.4761   -547.62454    73.598894    63.738512    36.719518   -69858.075    -308910.7 
     420    640.02356    172235.19    73.596166    73.596167    36.718157          120    -92863.76   -93651.515   -11468.524   -1147.4039   -1027.7662   -583.37236    73.596166     63.73615    36.718157     -65994.6   -308926.92 
     430    650.39065    172215.88    73.593415    73.593416    36.716784          120   -89238.385   -90151.109   -7931.5948   -1149.0762   -965.60892   -619.82207    73.593415    63.733768    36.716784   -62440.363    -308947.4 
     440    661.50178    172196.41    73.590643    73.590643    36.715401          120    -85766.92   -86797.016   -5022.6474   -1117.5345   -908.19719   -658.89125    73.590643    63.731367    36.715401   -59195.528    -308969.3 
     450    672.51016    172176.81     73.58785    73.587851    36.714008          120   -82459.123   -83594.705   -2727.9283   -1054.5962   -850.80943   -687.27527     73.58785    63.728948    36.714008   -56260.585   -308990.49 
     460    683.30273    172157.08    73.585039    73.585039    36.712605          120   -79364.586   -80569.205   -1103.6974   -964.12877   -812.72247   -701.84395    73.585039    63.726514    36.712605   -53679.163   -309011.37 
     470    694.36241    172137.23     73.58221    73.582211    36.711194          120   -76513.683   -77747.093   -180.11747    -848.4665   -793.55615   -699.96065     73.58221    63.724064    36.711194   -51480.298   -309032.68 
     480    706.51278    172117.26    73.579365    73.579366    36.709774          120   -73934.755   -75154.898   -6.1360142    -722.6001   -793.65263   -689.25942    73.579365      63.7216    36.709774   -49698.597   -309056.16 
     490    720.63191    172097.19    73.576504    73.576505    36.708347          120   -71644.907   -72802.323   -602.83707   -596.12444   -824.22582   -664.14736    73.576504    63.719123    36.708347   -48350.022    -309083.4 
     500    737.41883    172077.01    73.573629     73.57363    36.706913          120   -69634.112   -70681.504   -1989.8075   -483.96118   -876.21912   -630.75765    73.573629    63.716633    36.706913   -47435.141    -309115.7 
     510    757.24788    172056.74     73.57074    73.570741    36.705471          120   -67875.272   -68792.685    -4158.871   -393.50743   -951.14595   -596.15755     73.57074     63.71413    36.705471   -46942.276   -309153.93 
     520    780.11501    172036.37    73.567837    73.567838    36.704023          120   -66348.482   -67108.914   -7066.9812   -342.09454   -1044.0547   -566.95324    73.567837    63.711616    36.704023   -46841.459   -309198.01 
     530    805.64785    172015.91    73.564921    73.564921    36.702568          120   -65015.765   -65607.832   -10664.113   -326.39194   -1147.0169   -543.04753    73.564921    63.709091    36.702568   -47095.903   -309247.38 
     540    833.15698    171995.36    73.561991    73.561992    36.701106          120   -63842.327   -64260.933   -14885.721   -351.01505   -1256.7409   -526.30597    73.561991    63.706554    36.701106   -47662.993   -309300.83 
     550    861.72648    171974.72    73.559048    73.559049    36.699638          120   -62782.753   -63027.664    -19644.65   -414.16254   -1364.8811   -517.67794    73.559048    63.704005    36.699638   -48485.022   -309356.22 
     560    890.33965    171953.99    73.556092    73.556092    36.698163          120    -61809.41   -61885.163   -24859.038   -512.28566    -1466.982   -520.92983    73.556092    63.701445    36.698163    -49517.87   -309411.86 
     570    918.04175    171933.16    73.553122    73.553123    36.696682          120   -60896.872   -60811.515   -30451.243   -632.78298   -1561.1673   -537.80313    73.553122    63.698873    36.696682   -50719.877   -309466.04 
     580    944.09213    171912.24    73.550139    73.550139    36.695193          120   -60013.471   -59784.628   -36338.119   -773.64691   -1645.6845   -559.22195    73.550139    63.696289    36.695193   -52045.406   -309517.02 
     590    968.06217    171891.22    73.547141    73.547142    36.693698          120   -59158.734   -58819.511   -42459.409   -922.33764   -1721.4867   -588.68823    73.547141    63.693693    36.693698   -53479.218   -309564.58 
     600    989.85443    171870.11    73.544129     73.54413    36.692195          120   -58312.174   -57894.242   -48763.086   -1077.2413   -1795.7117   -618.64801    73.544129    63.691085    36.692195   -54989.834   -309608.09 
     610    1009.6269    171848.89    73.541103    73.541104    36.690685          120   -57479.415   -57021.723   -55211.239     -1222.27   -1867.2579    -652.7422    73.541103    63.688464    36.690685   -56570.792   -309648.15 
     620    1027.6576    171827.57    73.538061    73.538062    36.689168          120   -56657.637   -56200.753   -61760.456   -1351.9804   -1938.0012   -691.35532    73.538061     63.68583    36.689168   -58206.282   -309685.03 
     630    1044.2284    171806.14    73.535005    73.535005    36.687642          120   -55848.264   -55424.013   -68376.211   -1474.0666   -2011.2977   -737.47469    73.535005    63.683183    36.687642   -59882.829   -309719.04 
     640    1059.5339    171784.61    73.531932    73.531932    36.686109          120   -55071.859   -54722.224    -75028.55   -1584.9818    -2088.984   -784.83139    73.531932    63.680522    36.686109   -61607.544   -309751.25 
     650    1073.6433    171762.96    73.528843    73.528844    36.684568          120    -54325.24   -54087.275   -81670.633    -1683.441   -2165.9969   -832.38836    73.528843    63.677847    36.684568   -63361.049   -309781.33 
     660    1086.4902     171741.2    73.525738    73.525738    36.683019          120   -53618.975   -53511.279   -88258.385    -1765.076   -2238.7315   -867.69904    73.525738    63.675157    36.683019   -65129.546   -309808.97 
     670    1097.8756    171719.32    73.522615    73.522616    36.681461          120   -52974.513   -53002.217    -94758.85   -1834.3048   -2302.8518    -890.9909    73.522615    63.672453    36.681461    -66911.86   -309834.24 
     680    1107.4697    171697.32    73.519475    73.519476    36.679895          120   -52383.041   -52559.767   -101120.49   -1883.6226   -2350.5964   -894.45043    73.519475    63.669734    36.679895   -68687.765   -309856.02 
     690    1114.8503    171675.19    73.516317    73.516318    36.678319          120   -51858.472   -52196.184   -107299.25   -1917.0425    -2384.236   -879.21775    73.516317    63.666999    36.678319   -70451.301   -309873.82 
     700     1119.552    171652.95    73.513142    73.513142    36.676735          120    -51397.94   -51899.865   -113263.93   -1935.9219   -2403.9501   -829.64241    73.513142    63.664249    36.676735   -72187.246   -309886.79 
     710    1121.1376    171630.57    73.509947    73.509948    36.675141          120   -50975.715   -51645.283   -118983.79   -1936.0992   -2406.8895   -758.79309    73.509947    63.661482    36.675141   -73868.264   -309893.44 
     720    1119.2601    171608.06    73.506734    73.506734    36.673538          120   -50599.028   -51444.295   -124433.76   -1911.7095   -2399.0497   -667.88344    73.506734    63.658699    36.673538   -75492.359   -309893.67 
     730    1113.7215    171585.42    73.503501    73.503502    36.671925          120   -50243.813   -51280.227   -129591.69   -1877.2432    -2377.698   -564.79928    73.503501      63.6559    36.671925   -77038.578   -309886.71 
     740    1104.4999    171562.65    73.500249     73.50025    36.670302          120   -49907.814   -51138.996   -134453.07   -1845.4983   -2359.3447   -455.30843    73.500249    63.653084    36.670302    -78499.96   -309872.56 
     750    1091.7666    171539.74    73.496977    73.496978     36.66867          120   -49595.709   -51028.165   -139010.83    -1816.305   -2348.2279   -348.91776    73.496977     63.65025     36.66867   -79878.233    -309851.8 
     760    1075.8665     171516.7    73.493686    73.493686    36.667028          120   -49305.897   -50925.465   -143264.46   -1802.7717   -2331.1384   -254.45609    73.493686      63.6474    36.667028   -81165.274   -309824.73 
     770    1057.2654    171493.51    73.490374    73.490375    36.665376          120   -49057.525   -50844.215   -147222.63   -1808.3903   -2322.7238   -171.43095    73.490374    63.644532    36.665376   -82374.791   -309792.75 
     780    1036.4924    171470.19    73.487043    73.487043    36.663713          120   -48853.819   -50772.321   -150888.71   -1837.1443   -2322.4712   -121.56397    73.487043    63.641646    36.663713   -83504.952    -309756.6 
     790    1014.0952    171446.73    73.483691    73.483691    36.662041          120   -48692.423   -50700.441   -154254.17   -1882.0573   -2330.8247     -97.9414    73.483691    63.638743    36.662041   -84549.011   -309716.95 
     800     990.5803    171423.12    73.480319    73.480319    36.660359          120   -48603.187    -50625.61   -157318.07   -1942.5966   -2342.2935    -102.9403    73.480319    63.635823    36.660359   -85515.622   -309675.31 
     810    966.37683    171399.38    73.476926    73.476927    36.658666          120   -48567.481   -50542.962   -160082.28   -2012.7778   -2356.3666   -145.14312    73.476926    63.632885    36.658666   -86397.574   -309632.48 
     820    941.81004     171375.5    73.473514    73.473514    36.656964          120   -48563.666   -50427.827   -162503.42   -2078.1552   -2385.7967   -224.22138    73.473514     63.62993    36.656964    -87164.97    -309588.4 
     830    917.09881    171351.49    73.470081    73.470082    36.655251          120   -48585.522   -50288.651   -164596.32     -2130.92   -2422.4514   -328.59126    73.470081    63.626958    36.655251   -87823.496   -309544.63 
     840    892.39813    171327.33    73.466629     73.46663    36.653529          120   -48570.032   -50087.206   -166305.74   -2164.3409   -2470.0655    -464.8043    73.466629    63.623968    36.653529   -88320.993   -309500.22 
     850    867.87528    171303.05    73.463157    73.463158    36.651797          120   -48503.863    -49820.48   -167634.17   -2171.4652    -2523.955   -620.39782    73.463157    63.620961    36.651797   -88652.838    -309456.3 
     860    843.78477    171278.62    73.459666    73.459667    36.650055          120   -48343.026   -49442.649   -168561.34   -2149.7204    -2587.174   -784.77357    73.459666    63.617938    36.650055   -88782.337   -309412.74 
     870    820.51165    171254.07    73.456156    73.456156    36.648304          120   -48064.286   -48953.528   -169112.02    -2104.388   -2659.7794   -949.97083    73.456156    63.614898    36.648304   -88709.944   -309370.98 
     880    798.56849    171229.39    73.452627    73.452628    36.646543          120   -47645.536   -48332.045      -169281    -2044.633   -2729.6972   -1098.2289    73.452627    63.611842    36.646543   -88419.527   -309331.76 
     890    778.55242    171204.59    73.449081    73.449081    36.644774          120    -47051.17   -47552.358    -169083.6   -1971.8479    -2791.216   -1222.7247    73.449081     63.60877    36.644774    -87895.71   -309295.78 
     900    761.09456    171179.67    73.445517    73.445518    36.642996          120   -46296.071     -46625.8    -168555.2   -1895.3726   -2844.7354   -1323.2923    73.445517    63.605684    36.642996   -87159.024   -309265.14 
     910    746.81871    171154.64    73.441937    73.441937     36.64121          120   -45365.391   -45543.438    -167683.3   -1821.1148   -2874.1889   -1395.1074    73.441937    63.602584     36.64121   -86197.377   -309240.39 
     920    736.27251     171129.5    73.438341    73.438342    36.639416          120   -44261.105   -44312.192   -166499.51    -1754.343    -2885.869   -1443.2871    73.438341     63.59947    36.639416    -85024.27   -309222.79 
     930    729.83566    171104.26    73.434731    73.434731    36.637614          120   -42995.075   -42936.429   -165013.24   -1700.8586   -2876.3024   -1477.1132    73.434731    63.596343    36.637614   -83648.248   -309213.05 
     940    727.66011    171078.93    73.431106    73.431107    36.635806          120   -41578.942   -41425.974   -163236.46   -1664.4165   -2849.8802   -1495.6873    73.431106    63.593204    36.635806   -82080.459   -309211.51 
     950    729.68101    171053.51    73.427469     73.42747    36.633992          120   -40019.816    -39790.24   -161168.96   -1642.1269    -2815.396   -1512.4933    73.427469    63.590055    36.633992   -80326.338   -309217.77 
     960    735.66745    171028.02    73.423821    73.423822    36.632171          120   -38335.846   -38062.877   -158843.89   -1637.3713    -2778.592   -1527.8898    73.423821    63.586895    36.632171   -78414.206      -309232 
     970    745.25058    171002.45    73.420163    73.420163    36.630346          120   -36531.426   -36240.186   -156270.85   -1647.1188   -2732.3511   -1538.6214    73.420163    63.583727    36.630346   -76347.489   -309252.91 
     980    757.95019    170976.83    73.416495    73.416496    36.628516          120   -34639.707   -34358.681   -153473.66   -1667.5788    -2685.135   -1545.1306    73.416495     63.58055    36.628516   -74157.351   -309280.04 
     990    773.18821    170951.15     73.41282    73.412821    36.626683          120   -32668.945   -32420.364   -150480.29   -1692.8255   -2627.3207   -1551.3488     73.41282    63.577368    36.626683   -71856.533   -309311.93 
    1000    790.31596    170925.44    73.409138    73.409139    36.624846          120   -30650.295   -30450.705   -147308.68   -1724.2493   -2551.1493     -1556.55    73.409138    63.574179    36.624846   -69469.893   -309347.58 
    1010    808.64993    170899.69    73.405452    73.405453    36.623007          120   -28595.318   -28462.913   -143984.21   -1750.9661   -2458.1487   -1572.8495    73.405452    63.570987    36.623007   -67014.147   -309385.52 
    1020    827.52737    170873.92    73.401762    73.401763    36.621166          120    -26538.49    -26473.99   -140509.37   -1767.9063   -2333.0485   -1599.6963    73.401762    63.567791    36.621166   -64507.284   -309424.56 
    1030    846.36851    170848.13     73.39807    73.398071    36.619324          120   -24496.226   -24497.876   -136901.11   -1784.5904   -2184.5571   -1634.5156     73.39807    63.564594    36.619324   -61965.069   -309463.65 
    1040    864.69488    170822.35    73.394377    73.394378    36.617481          120   -22485.182   -22538.064   -133168.78   -1794.2383   -2014.8037   -1680.4583    73.394377    63.561396    36.617481   -59397.341   -309501.78 
    1050    882.11502    170796.57    73.390685    73.390686    36.615639          120   -20511.554   -20621.952   -129310.07   -1796.9092   -1829.8315   -1729.2535    73.390685    63.558198    36.615639   -56814.527   -309538.27 
    1060    898.29497    170770.81    73.386995    73.386996    36.613798          120   -18587.176   -18751.032   -125323.88   -1796.2967   -1636.2914   -1784.3644    73.386995    63.555003    36.613798   -54220.696   -309572.47 
    1070    912.97586    170745.08    73.383309    73.383309    36.611959          120   -16724.748   -16924.254   -121211.87   -1790.4992   -1449.0166   -1828.8953    73.383309     63.55181    36.611959   -51620.292   -309603.91 
    1080    926.00829    170719.38    73.379627    73.379628    36.610123          120    -14914.95   -15155.527   -116961.02   -1772.1298   -1266.7871   -1869.4834    73.379627    63.548622    36.610123   -49010.498   -309631.96 
    1090     937.3744    170693.73    73.375952    73.375953    36.608289          120    -13179.41   -13460.594   -112587.62   -1746.8233    -1084.528   -1894.6529    73.375952    63.545439    36.608289   -46409.208   -309657.09 
    1100     947.1682    170668.14    73.372285    73.372285    36.606459          120   -11527.353   -11832.997   -108104.05   -1712.8656   -918.89125   -1910.2539    73.372285    63.542263    36.606459   -43821.466   -309679.15 
    1110    955.53887    170642.61    73.368626    73.368627    36.604634          120   -9975.0462   -10291.556   -103521.57   -1674.4675   -766.19644   -1911.6542    73.368626    63.539095    36.604634   -41262.723    -309698.4 
    1120     962.6353    170617.15    73.364978    73.364979    36.602814          120   -8527.7902   -8857.8255   -98884.229   -1634.1637   -628.47131   -1904.5162    73.364978    63.535935    36.602814   -38756.615   -309715.43 
    1130    968.53996    170591.78    73.361341    73.361342    36.600999          120    -7197.324   -7526.7456   -94217.435   -1598.6144   -516.53247   -1876.5721    73.361341    63.532786    36.600999   -36313.835   -309730.18 
    1140    973.22597     170566.5    73.357718    73.357718    36.599191          120   -5984.0691   -6308.0947     -89547.7    -1569.113   -428.15028   -1834.0715    73.357718    63.529648    36.599191   -33946.621   -309742.65 
    1150    976.56214    170541.33    73.354108    73.354108    36.597391          120   -4872.3979   -5208.2456   -84902.835   -1546.6634   -368.23754   -1782.5066    73.354108    63.526522    36.597391   -31661.159   -309752.51 
    1160    978.35671    170516.26    73.350513    73.350514    36.595597          120   -3862.6746    -4203.175   -80295.189   -1533.2774   -334.49737   -1724.2209    73.350513    63.523409    36.595597   -29453.679   -309759.14 
    1170    978.38905     170491.3    73.346935    73.346936    36.593812          120   -2969.2534    -3304.104   -75737.609   -1540.2639   -333.06862   -1667.4983    73.346935     63.52031    36.593812   -27336.989   -309762.73 
    1180    976.43234    170466.47    73.343374    73.343375    36.592035          120   -2168.0482   -2484.2396   -71220.406   -1558.3629   -360.29624   -1617.2144    73.343374    63.517226    36.592035   -25290.898   -309762.22 
    1190     972.3047    170441.77    73.339831    73.339832    36.590268          120   -1470.8564   -1747.3081   -66751.602     -1583.95   -413.92866   -1577.0446    73.339831    63.514158    36.590268   -23323.255    -309757.8 
    1200    965.97206    170417.21    73.336308    73.336309     36.58851          120   -860.58733   -1069.4835   -62336.262   -1617.7467   -484.64963    -1561.687    73.336308    63.511106     36.58851   -21422.111   -309748.94 
    1210    957.65399    170392.79    73.332805    73.332805    36.586762          120   -345.04734   -462.63747   -57987.118   -1656.5462   -563.43022   -1563.6399    73.332805    63.508073    36.586762   -19598.268   -309736.27 
    1220    947.83736    170368.51    73.329323    73.329323    36.585025          120    62.390962    74.332445   -53741.271   -1697.3727   -630.69046   -1580.9219    73.329323    63.505057    36.585025   -17868.183   -309720.74 
    1230    937.18765     170344.4    73.325862    73.325863    36.583298          120    360.67028    511.00381   -49629.912   -1730.1632   -686.71899   -1607.6606    73.325862     63.50206    36.583298   -16252.746    -309703.7 
    1240     926.4068    170320.44    73.322424    73.322425    36.581583          120    537.70372     839.4088   -45669.622   -1750.5889   -730.33689   -1632.2099    73.322424    63.499083    36.581583    -14764.17   -309686.11 
    1250    916.09307    170296.64    73.319009     73.31901    36.579879          120    584.22105    1039.3908   -41904.783   -1746.7228   -764.77767   -1649.6192    73.319009    63.496125    36.579879   -13427.057   -309669.57 
    1260    906.62868    170273.02    73.315619    73.315619    36.578188          120    509.40742     1115.597    -38332.76    -1715.547   -804.04453   -1664.3255    73.315619    63.493189    36.578188   -12235.919   -309654.44 
    1270     898.0968    170249.56    73.312252    73.312253    36.576508          120    328.63977    1065.8115   -34957.839   -1657.6824   -853.30392   -1687.5426    73.312252    63.490273    36.576508   -11187.796   -309641.05 
    1280    890.30544    170226.28     73.30891    73.308911    36.574841          120    73.067867    906.22747   -31763.609   -1572.2759   -908.60245   -1721.4744     73.30891    63.487379    36.574841   -10261.438   -309628.93 
    1290    882.94609    170203.18    73.305594    73.305594    36.573186          120   -258.25757    656.83982   -28738.701   -1457.3935   -968.48054    -1766.083    73.305594    63.484507    36.573186   -9446.7062    -309617.9 
    1300    875.79397    170180.25    73.302303    73.302303    36.571544          120   -615.55758    342.23959   -25870.235   -1324.1228   -1015.9331   -1827.2671    73.302303    63.481657    36.571544   -8714.5177   -309606.95 
    1310    868.80906    170157.51    73.299037    73.299038    36.569915          120   -975.08962   -28.132851   -23166.324   -1185.7029   -1048.0907   -1889.2139    73.299037    63.478829    36.569915   -8056.5156   -309595.92 
    1320    862.10227    170134.96    73.295798    73.295799    36.568299          120   -1358.8335    -453.9295   -20670.702   -1049.8473   -1050.6017   -1947.3427    73.295798    63.476024    36.568299   -7494.4882    -309585.8 
    1330    855.84051    170112.58    73.292585    73.292586    36.566696          120   -1740.9102   -924.25247   -18408.309   -930.46007   -1032.7518   -1992.6644    73.292585    63.473241    36.566696   -7024.4907   -309576.42 
    1340    850.17215    170090.39    73.289398    73.289399    36.565106          120   -2124.4926   -1435.1863   -16418.603   -837.41015   -995.15949   -2031.7817    73.289398    63.470482    36.565106   -6659.4274   -309568.16 
    1350      845.217    170068.39    73.286238    73.286239    36.563529          120   -2507.1088   -1966.3359   -14750.303   -763.96067   -956.78251   -2061.5735    73.286238    63.467745    36.563529    -6407.916   -309561.11 
    1360    841.08221    170046.58    73.283105    73.283105    36.561966          120   -2897.1543   -2515.6869   -13423.265   -723.97174   -924.77107    -2088.761    73.283105    63.465031    36.561966    -6278.702   -309555.49 
    1370    837.87328    170024.95    73.279997    73.279998    36.560416          120   -3303.4904   -3080.5242   -12472.544   -701.42218   -908.66977   -2102.5323    73.279997     63.46234    36.560416   -6285.5197   -309551.78 
    1380    835.66532     170003.5    73.276916    73.276917    36.558879          120   -3734.2696   -3647.5881   -11898.672   -696.35001   -896.32604   -2098.8152    73.276916    63.459672    36.558879   -6426.8433   -309549.88 
    1390    834.45027    169982.24    73.273862    73.273862    36.557355          120   -4199.0277   -4218.8762   -11703.413    -709.8918   -885.68735   -2077.2225    73.273862    63.457026    36.557355   -6707.1055   -309549.98 
    1400    834.11062    169961.17    73.270833    73.270834    36.555843          120    -4686.183   -4787.2355   -11870.009   -736.38635   -870.30796   -2037.8417    73.270833    63.454403    36.555843   -7114.4759   -309551.63 
    1410     834.4677    169940.27     73.26783    73.267831    36.554345          120   -5215.7185   -5347.8537   -12381.497   -780.97808    -836.1972    -1975.168     73.26783    63.451803    36.554345   -7648.3565   -309554.85 
    1420    835.38684    169919.55    73.264852    73.264853     36.55286          120   -5783.2402   -5883.3734   -13217.702   -855.38792   -777.74985   -1891.3041    73.264852    63.449224     36.55286   -8294.7717   -309559.07 
    1430    836.84946    169899.01      73.2619    73.261901    36.551387          120   -6393.5991   -6408.5038   -14361.076   -955.81636   -696.03364   -1799.7523      73.2619    63.446667    36.551387   -9054.3931    -309564.5 
    1440    838.95628    169878.64    73.258972    73.258973    36.549926          120    -7035.077   -6910.1805   -15803.271   -1085.9482   -611.89081   -1707.4518    73.258972    63.444132    36.549926    -9916.176   -309570.82 
    1450    841.86378    169858.44    73.256068    73.256069    36.548477          120   -7730.5977   -7423.1507   -17539.367   -1235.8003   -527.21289   -1620.8902    73.256068    63.441617    36.548477   -10897.705      -309579 
    1460    845.72501    169838.41    73.253188    73.253189     36.54704          120   -8457.3471   -7954.5479   -19578.538   -1398.0932   -465.88285   -1559.4649    73.253188    63.439123     36.54704   -11996.811   -309589.11 
    1470    850.64498    169818.54    73.250331    73.250332    36.545615          120   -9216.9109   -8524.2931   -21885.857   -1557.9567   -426.95908   -1523.2915    73.250331    63.436648    36.545615    -13209.02   -309601.19 
    1480    856.63108    169798.82    73.247497    73.247497    36.544201          120   -10008.401   -9147.6553   -24449.719   -1716.1384   -416.77837   -1505.5843    73.247497    63.434193    36.544201   -14535.258   -309615.47 
    1490    863.54085    169779.26    73.244684    73.244684    36.542797          120   -10814.163   -9833.0422    -27241.84     -1856.63   -437.30633   -1508.5449    73.244684    63.431757    36.542797   -15963.015   -309631.64 
    1500    871.07634    169759.85    73.241892    73.241893    36.541404          120   -11631.794   -10580.004   -30210.606   -1971.7346    -482.1268   -1528.1549    73.241892     63.42934    36.541404   -17474.135   -309649.04 
    1510    878.83498    169740.58    73.239121    73.239121    36.540022          120   -12453.779   -11368.902   -33320.355   -2057.2822   -552.68138   -1571.3258    73.239121     63.42694    36.540022   -19047.679   -309666.89 
    1520    886.41656    169721.45    73.236369     73.23637    36.538649          120   -13274.601    -12198.46   -36520.235   -2112.4559    -639.8948   -1633.0014    73.236369    63.424557    36.538649   -20664.432   -309684.54 
    1530    893.53538    169702.45    73.233636    73.233637    36.537285          120   -14080.375   -13061.046   -39772.519   -2134.6832   -743.06545   -1710.6256    73.233636     63.42219    36.537285   -22304.647   -309701.33 
    1540    900.08406    169683.58    73.230921    73.230922    36.535931          120   -14878.957   -13935.616   -43047.414   -2127.3328   -855.77848   -1802.0792    73.230921    63.419839    36.535931   -23953.996   -309717.01 
    1550    906.10739    169664.83    73.228224    73.228224    36.534585          120    -15670.15   -14822.855   -46332.987    -2094.014   -963.68237   -1896.7288    73.228224    63.417503    36.534585   -25608.664    -309731.8 
    1560    911.72644    169646.19    73.225543    73.225543    36.533248          120   -16441.623   -15711.354   -49621.635   -2038.7208   -1068.4962   -1990.9559    73.225543    63.415181    36.533248   -27258.204   -309745.74 
    1570    917.04821    169627.67    73.222877    73.222878    36.531918          120   -17201.967   -16595.012   -52897.102   -1965.7829   -1152.5707   -2079.0779    73.222877    63.412873    36.531918   -28898.027   -309759.09 
    1580    922.08906    169609.25    73.220227    73.220228    36.530596          120   -17953.773   -17454.776   -56170.316    -1886.186   -1225.4187   -2160.6388    73.220227    63.410577    36.530596   -30526.288   -309772.26 
    1590    926.73639    169590.93    73.217591    73.217592     36.52928          120   -18687.821   -18267.745   -59404.915   -1804.4155   -1286.5507   -2240.2238    73.217591    63.408295     36.52928    -32120.16   -309784.59 
    1600    930.78006    169572.71    73.214969    73.214969    36.527972          120   -19405.191   -19018.732   -62593.793   -1722.1189   -1337.3989   -2308.5049    73.214969    63.406023    36.527972   -33672.572   -309796.01 
    1610     933.9849    169554.58    73.212359    73.212359     36.52667          120   -20086.232   -19693.714   -65714.479   -1639.6634   -1382.9846   -2364.8419    73.212359    63.403763     36.52667   -35164.808   -309805.81 
    1620    936.19002    169536.53    73.209761    73.209762    36.525374          120   -20718.997     -20287.3   -68761.869   -1565.2484   -1433.3553   -2410.5895    73.209761    63.401513    36.525374   -36589.389   -309813.72 
    1630    937.37558    169518.56    73.207175    73.207175    36.524083          120   -21293.918   -20800.483   -71735.001   -1493.6516   -1483.8236   -2439.5233    73.207175    63.399274    36.524083   -37943.134   -309819.56 
    1640    937.68451    169500.67    73.204599      73.2046    36.522798          120   -21815.201   -21245.779   -74640.297   -1433.9843   -1540.3116   -2442.9297    73.204599    63.397043    36.522798   -39233.759   -309823.69 
    1650    937.39063    169482.85    73.202034    73.202034    36.521518          120   -22282.605   -21633.676   -77495.942   -1381.5829   -1606.1035   -2424.8247    73.202034    63.394821    36.521518   -40470.741   -309826.57 
    1660    936.79134     169465.1    73.199478    73.199478    36.520243          120    -22707.28   -21989.067   -80331.715   -1342.7141   -1678.8083   -2400.7238    73.199478    63.392608    36.520243   -41676.021   -309829.21 
    1670    936.05919    169447.41    73.196931    73.196931    36.518973          120   -23085.892   -22306.677   -83133.841   -1320.0769   -1754.7796   -2368.2801    73.196931    63.390402    36.518973   -42842.137   -309831.41 
    1680    935.13645    169429.78    73.194392    73.194393    36.517706          120   -23412.988   -22591.848   -85896.067   -1312.8369   -1835.6282   -2334.9992    73.194392    63.388204    36.517706   -43966.967   -309833.22 
    1690    933.76512    169412.21    73.191862    73.191862    36.516444          120   -23683.493   -22832.498   -88607.515     -1317.67   -1909.3188   -2301.5965    73.191862    63.386012    36.516444   -45041.169   -309834.37 
    1700    931.59911    169394.69    73.189339    73.189339    36.515185          120   -23878.521   -23011.512   -91225.853   -1328.7532   -1974.9195   -2274.7371    73.189339    63.383827    36.515185   -46038.628   -309833.94 
    1710    928.33114    169377.22    73.186823    73.186823     36.51393          120   -23986.475   -23112.516   -93729.796   -1352.8227   -2031.6499   -2261.4746    73.186823    63.381648     36.51393   -46942.929   -309831.41 
    1720     923.7693    169359.79    73.184313    73.184314    36.512677          120   -24006.479   -23131.723   -96096.783   -1378.1333     -2078.99   -2258.5595    73.184313    63.379475    36.512677   -47744.995    -309826.7 
    1730    917.87121    169342.41    73.181809     73.18181    36.511428          120   -23926.398   -23047.513     -98293.3   -1407.1912   -2123.0905   -2268.0173    73.181809    63.377307    36.511428   -48422.404   -309819.01 
    1740    910.75552    169325.08    73.179312    73.179312    36.510182          120    -23755.42   -22872.109    -100340.9   -1431.5872   -2160.5707   -2286.1312    73.179312    63.375144    36.510182   -48989.476   -309809.18 
    1750    902.68985    169307.77    73.176819     73.17682    36.508939          120   -23502.106   -22593.574   -102225.88   -1449.0831   -2202.0405   -2301.5864    73.176819    63.372985    36.508939   -49440.518   -309797.18 
    1760    894.04253    169290.51    73.174332    73.174333    36.507698          120   -23183.954   -22239.036   -103956.17   -1449.9579   -2242.3582    -2314.729    73.174332    63.370831    36.507698   -49793.055   -309783.81 
    1770    885.21227    169273.28     73.17185     73.17185    36.506459          120   -22831.346   -21824.235   -105571.11   -1431.9443   -2280.1708   -2311.9836     73.17185    63.368682    36.506459   -50075.565   -309770.47 
    1780    876.55824    169256.09    73.169372    73.169373    36.505223          120   -22443.567   -21393.149   -107042.69   -1398.5564   -2319.5691   -2301.4145    73.169372    63.366536    36.505223   -50293.135   -309757.46 
    1790    868.37067    169238.93      73.1669      73.1669     36.50399          120   -22041.946   -20936.336   -108368.52   -1342.8808   -2354.3506   -2281.7702      73.1669    63.364394     36.50399   -50448.934   -309745.03 
    1800    860.87404     169221.8    73.164431    73.164432    36.502758          120   -21635.662   -20493.515   -109552.76   -1266.8078   -2397.9538   -2247.6356    73.164431    63.362257    36.502758   -50560.644   -309734.09 
    1810    854.22183    169204.71    73.161967    73.161968    36.501529          120   -21234.749   -20062.651   -110580.04   -1185.5863   -2435.4413   -2199.5612    73.161967    63.360123    36.501529   -50625.812   -309724.73 
    1820    848.48754    169187.64    73.159507    73.159508    36.500302          120   -20838.481   -19653.716   -111433.55   -1099.2875   -2471.2683   -2149.9688    73.159507    63.357993    36.500302   -50641.915   -309717.08 
    1830    843.67114     169170.6    73.157052    73.157052    36.499076          120   -20448.149   -19255.641      -112108   -1016.0782   -2503.6283   -2091.1386    73.157052    63.355866    36.499076   -50603.929   -309711.15 
    1840     839.7324     169153.6      73.1546    73.154601    36.497853          120   -20069.138   -18869.805   -112583.82   -943.45329   -2536.5341   -2028.6832      73.1546    63.353743    36.497853   -50507.587   -309706.99 
    1850    836.62933    169136.62    73.152152    73.152153    36.496632          120   -19695.168   -18478.599   -112844.51   -880.41676   -2563.4053   -1974.5395    73.152152    63.351623    36.496632   -50339.427   -309704.19 
    1860    834.33881    169119.67    73.149709    73.149709    36.495413          120   -19325.494   -18084.888   -112885.13   -833.28054   -2596.3345   -1937.5367    73.149709    63.349507    36.495413   -50098.502   -309702.89 
    1870    832.86567    169102.75    73.147269     73.14727    36.494196          120   -18964.212    -17688.59   -112719.89   -800.59622   -2631.1768   -1924.9679    73.147269    63.347394    36.494196   -49790.897   -309703.43 
    1880    832.22536    169085.86    73.144834    73.144834    36.492981          120    -18601.45   -17283.544   -112344.72   -780.87923   -2663.6509   -1933.3765    73.144834    63.345285    36.492981   -49409.905   -309705.43 
    1890    832.41073       169069    73.142402    73.142403    36.491767          120   -18236.241   -16867.014   -111762.46   -770.36441   -2700.2768   -1962.1398    73.142402    63.343179    36.491767   -48955.237   -309708.76 
    1900    833.37141    169052.16    73.139975    73.139975    36.490556          120   -17882.497    -16467.95   -110983.92   -775.56763   -2734.5993   -2000.7276    73.139975    63.341077    36.490556   -48444.789   -309713.94 
    1910    835.01395    169035.36    73.137551    73.137552    36.489347          120   -17512.845   -16083.459   -110010.47   -791.39673   -2760.7322   -2041.4044    73.137551    63.338978    36.489347   -47868.924   -309720.22 
    1920    837.22133    169018.59    73.135133    73.135133    36.488141          120    -17126.57   -15721.744   -108868.26    -823.7398   -2776.9353   -2077.5134    73.135133    63.336883    36.488141   -47238.857   -309727.71 
    1930    839.87899    169001.85    73.132718    73.132719    36.486936          120   -16719.556   -15396.804   -107560.36    -871.7953    -2765.778   -2096.5203    73.132718    63.334793    36.486936   -46558.908   -309736.09 
    1940    842.88616    168985.15    73.130309    73.130309    36.485734          120   -16283.231   -15102.796   -106097.13   -932.82735    -2723.191   -2101.2182    73.130309    63.332706    36.485734   -45827.718   -309744.99 
    1950    846.15048    168968.48    73.127904    73.127905    36.484534          120    -15822.67   -14838.424   -104489.99    -1009.243   -2653.6548   -2082.4555    73.127904    63.330623    36.484534   -45050.361    -309754.2 
    1960    849.57695    168951.84    73.125504    73.125505    36.483337          120   -15341.686   -14610.319   -102767.43    -1090.295    -2556.446   -2042.7861    73.125504    63.328545    36.483337   -44239.811   -309763.88 
    1970    853.07583    168935.25     73.12311     73.12311    36.482142          120   -14856.796   -14416.815   -100932.14   -1174.1551   -2440.6335   -1991.5395     73.12311    63.326471    36.482142   -43401.917   -309773.96 
    1980    856.57351    168918.69    73.120721    73.120721     36.48095          120    -14356.78    -14226.08   -98995.064   -1268.7511   -2309.4668   -1913.2502    73.120721    63.324402     36.48095   -42525.975   -309783.69 
    1990    860.01548    168902.17    73.118337    73.118338    36.479761          120   -13864.375   -14029.139   -96983.533   -1360.9187   -2184.0907   -1816.2655    73.118337    63.322338    36.479761   -41625.683   -309793.43 
    2000    863.34801     168885.7     73.11596     73.11596    36.478575          120   -13380.236    -13807.49   -94916.022   -1451.7749   -2065.7704   -1703.8261     73.11596    63.320279    36.478575   -40701.249    -309802.9 
    2010    866.51324    168869.26    73.113588    73.113589    36.477392          120   -12906.774    -13565.83   -92809.694    -1541.471   -1958.7195   -1581.9119    73.113588    63.318225    36.477392   -39760.766   -309812.29 
    2020    869.45712    168852.88    73.111223    73.111224    36.476212          120    -12445.81   -13286.725    -90662.31   -1618.7202   -1873.5383   -1461.2077    73.111223    63.316177    36.476212   -38798.282   -309821.15 
    2030    872.15773    168836.54    73.108865    73.108865    36.475035          120    -11999.75   -12957.403   -88481.121   -1684.6042   -1810.5984   -1354.9416    73.108865    63.314135    36.475035   -37812.758   -309829.28 
    2040    874.64324    168820.25    73.106513    73.106514    36.473862          120   -11577.995   -12598.747    -86282.22   -1735.6815    -1772.022   -1268.0364    73.106513    63.312098    36.473862   -36819.654   -309837.19 
    2050     876.9977       168804    73.104169    73.104169    36.472692          120   -11179.981   -12212.732   -84061.904   -1772.5586   -1752.3676   -1200.8914    73.104169    63.310068    36.472692   -35818.206   -309844.81 
    2060    879.32071    168787.81    73.101831    73.101832    36.471526          120   -10813.437   -11812.359   -81839.515   -1794.3794   -1754.0901   -1159.3874    73.101831    63.308044    36.471526    -34821.77   -309852.51 
    2070     881.6483    168771.68    73.099502    73.099502    36.470364          120   -10481.837   -11395.659   -79632.687    -1810.462   -1775.0083   -1142.9942    73.099502    63.306026    36.470364   -33836.728   -309860.42 
    2080    883.88747    168755.59     73.09718     73.09718    36.469205          120   -10176.707   -10955.457   -77438.853   -1824.6294    -1809.942   -1145.7587     73.09718    63.304015    36.469205   -32857.006   -309867.99 
    2090     885.8159    168739.57    73.094866    73.094866    36.468051          120   -9888.6264   -10512.283   -75268.155   -1833.9489   -1850.9151   -1171.4451    73.094866    63.302011    36.468051   -31889.688   -309875.14 
    2100    887.17012     168723.6     73.09256    73.092561    36.466901          120   -9597.5676   -10048.333   -73129.956   -1847.4996   -1902.2801   -1222.1147     73.09256    63.300015    36.466901   -30925.285   -309881.05 
    2110    887.75921     168707.7    73.090263    73.090264    36.465755          120   -9312.8796   -9560.5592   -71036.538   -1867.9192    -1950.919   -1285.5013    73.090263    63.298025    36.465755   -29969.992   -309885.57 
    2120    887.52391    168691.85    73.087975    73.087975    36.464613          120   -9029.2198   -9054.2314   -68991.726   -1897.6062   -1984.8143   -1366.2894    73.087975    63.296043    36.464613   -29025.059   -309888.47 
    2130    886.52821    168676.07    73.085695    73.085696    36.463476          120   -8742.3014   -8554.2131   -67012.701   -1935.4268   -1997.7968   -1469.7427    73.085695    63.294069    36.463476   -28103.072   -309889.99 
    2140    884.89982    168660.35    73.083425    73.083425    36.462343          120   -8471.9116   -8054.0474   -65099.256   -1977.3113   -1986.9116   -1591.1653    73.083425    63.292103    36.462343   -27208.405   -309890.25 
    2150    882.77121    168644.69    73.081163    73.081164    36.461215          120   -8213.7845   -7566.8589   -63255.442   -2022.9626   -1954.3207    -1740.542    73.081163    63.290145    36.461215   -26345.362   -309889.23 
    2160    880.26534     168629.1    73.078912    73.078912    36.460091          120   -7979.6638   -7119.9717   -61490.276   -2045.6163   -1905.7057   -1907.8146    73.078912    63.288194    36.460091    -25529.97   -309887.62 
    2170    877.49824    168613.58    73.076669     73.07667    36.458972          120   -7770.1948   -6721.4992   -59807.674   -2054.8112    -1845.583   -2094.2092    73.076669    63.286253    36.458972   -24766.456   -309885.49 
    2180    874.56449    168598.13    73.074437    73.074437    36.457859          120   -7586.6728   -6380.0583    -58209.31   -2050.6799   -1772.1469   -2295.0958    73.074437    63.284319    36.457859    -24058.68   -309882.98 
    2190    871.53742    168582.74    73.072214    73.072215     36.45675          120   -7429.0944   -6098.7523   -56707.344   -2029.9925   -1687.1378   -2492.4222    73.072214    63.282394     36.45675    -23411.73    -309880.4 
    2200    868.51394    168567.43    73.070001    73.070002    36.455646          120   -7296.9085   -5884.5008   -55304.164   -1997.2696   -1592.1194   -2689.6009    73.070001    63.280478    36.455646   -22828.524    -309877.8 
    2210    865.64825    168552.18    73.067798    73.067799    36.454547          120   -7175.3888    -5740.311   -54005.255   -1953.1023   -1479.4449   -2868.9727    73.067798     63.27857    36.454547   -22306.985   -309875.27 
    2220    863.08932    168537.01    73.065605    73.065606    36.453452          120   -7075.6921   -5664.0747   -52821.371   -1902.3289   -1350.9147   -3021.8601    73.065605    63.276671    36.453452   -21853.713   -309873.23 
    2230    860.87646     168521.9    73.063422    73.063423    36.452363          120   -6998.9704   -5662.5214   -51755.957   -1838.9294   -1199.9808   -3142.4978    73.063422     63.27478    36.452363   -21472.483   -309871.97 
    2240    858.91743    168506.86    73.061249     73.06125    36.451279          120   -6936.0927   -5714.4127   -50809.748    -1768.295   -1042.2335   -3231.3967    73.061249    63.272899    36.451279   -21153.418   -309871.16 
    2250     857.0723     168491.9    73.059086    73.059087      36.4502          120   -6893.7705   -5808.0331   -49959.474   -1694.0721   -892.27691   -3286.8298    73.059086    63.271025      36.4502   -20887.092   -309870.55 
    2260    855.25888       168477    73.056933    73.056933    36.449126          120   -6868.3692   -5934.4985   -49200.084   -1611.9616   -750.76646   -3315.7934    73.056933     63.26916    36.449126   -20667.651   -309870.02 
    2270    853.50023    168462.17    73.054789     73.05479    36.448056          120    -6874.357   -6089.7798    -48504.63   -1532.1385   -638.99533   -3327.2639    73.054789    63.267304    36.448056   -20489.589   -309869.49 
    2280    851.89721    168447.41    73.052655    73.052656    36.446992          120   -6912.7333   -6262.8645   -47880.361   -1458.8387   -560.33634   -3338.3284    73.052655    63.265456    36.446992   -20351.986   -309869.17 
    2290    850.56425    168432.71    73.050531    73.050532    36.445932          120   -7002.8583   -6440.2177   -47327.484   -1406.2967   -513.23136   -3350.7323    73.050531    63.263616    36.445932   -20256.853   -309869.36 
    2300    849.57109    168418.09    73.048416    73.048417    36.444877          120      -7154.1   -6624.3716   -46856.077    -1364.707   -497.14169   -3378.7968    73.048416    63.261785    36.444877   -20211.516   -309870.57 
    2310     848.8982    168403.52     73.04631    73.046311    36.443826          120   -7352.7648   -6797.6505   -46452.081   -1335.1001   -518.65605   -3423.8824     73.04631    63.259961    36.443826   -20200.832   -309872.22 
    2320    848.45366    168389.02    73.044214    73.044214     36.44278          120    -7597.354   -6952.6834   -46130.611   -1317.9634    -572.3059   -3486.4202    73.044214    63.258145     36.44278   -20226.883   -309874.43 
    2330    848.13404    168374.58    73.042126    73.042127    36.441738          120     -7862.29   -7089.4408   -45897.255   -1303.6513   -666.06111   -3563.4196    73.042126    63.256337    36.441738   -20282.995   -309876.91 
    2340    847.87637    168360.21    73.040047    73.040048    36.440701          120   -8139.3289   -7205.2275    -45744.84   -1284.7856   -798.48101   -3640.4616    73.040047    63.254537    36.440701   -20363.132   -309879.35 
    2350    847.65518    168345.89    73.037977    73.037977    36.439668          120   -8411.4376   -7313.6586    -45698.11   -1248.1539    -959.0659   -3718.3526    73.037977    63.252744    36.439668   -20474.402   -309881.93 
    2360    847.45826    168331.63    73.035915    73.035916     36.43864          120   -8676.3654   -7428.2467   -45763.041   -1202.6524   -1144.1136   -3799.4051    73.035915    63.250958     36.43864   -20622.551   -309884.78 
    2370    847.28473    168317.43    73.033861    73.033862    36.437615          120   -8914.2826   -7544.4329    -45946.71   -1134.9137   -1329.3517   -3874.3249    73.033861     63.24918    36.437615   -20801.808   -309887.38 
    2380    847.17554    168303.29    73.031815    73.031816    36.436594          120   -9136.6833   -7692.0373   -46269.843    -1050.904   -1495.6135    -3940.693    73.031815    63.247408    36.436594   -21032.855   -309890.38 
    2390    847.22199     168289.2    73.029777    73.029778    36.435577          120   -9344.2013    -7870.796   -46725.769   -965.77727   -1634.6302   -4001.4289    73.029777    63.245643    36.435577   -21313.589   -309893.55 
    2400     847.5401    168275.16    73.027747    73.027747    36.434564          120   -9550.2514   -8078.2902   -47324.512   -885.37426   -1736.7332   -4046.9048    73.027747    63.243884    36.434564   -21651.018   -309897.04 
    2410    848.22015    168261.17    73.025723    73.025724    36.433555          120   -9779.4426   -8330.1278   -48071.216   -818.10579   -1803.8596   -4071.8893    73.025723    63.242132    36.433555   -22060.262   -309901.43 
    2420    849.28845    168247.23    73.023707    73.023707    36.432549          120    -10033.28   -8629.9255    -48942.93     -769.895   -1841.6656   -4078.1468    73.023707    63.240386    36.432549   -22535.378    -309906.6 
    2430    850.69852    168233.34    73.021697    73.021697    36.431546          120   -10328.227   -8965.2607   -49918.447   -736.66395   -1866.7317   -4079.0248    73.021697    63.238645    36.431546   -23070.645   -309912.51 
    2440    852.35559    168219.49    73.019693    73.019693    36.430546          120   -10650.851   -9315.0644   -50968.247    -710.7286    -1893.096   -4062.4024    73.019693     63.23691    36.430546   -23644.721   -309918.67 
    2450    854.14653    168205.69    73.017695    73.017695    36.429549          120   -11007.974   -9678.8215   -52070.084   -682.04751   -1939.2571   -4047.3854    73.017695    63.235179    36.429549   -24252.293    -309925.3 
    2460    855.96419    168191.92    73.015703    73.015703    36.428555          120   -11359.523   -10038.241   -53198.018   -650.27115   -1998.5732   -4035.2077    73.015703    63.233454    36.428555    -24865.26   -309931.78 
    2470    857.71752    168178.19    73.013715    73.013716    36.427564          120   -11697.098   -10385.231   -54348.097   -614.43988   -2074.4147   -4020.2007    73.013715    63.231733    36.427564   -25476.808   -309938.25 
    2480    859.34429    168164.49    73.011733    73.011734    36.426575          120   -12004.452   -10716.597   -55499.899   -584.97184    -2159.597   -4011.0031    73.011733    63.230016    36.426575   -26073.649   -309944.58 
    2490    860.81733    168150.82    73.009755    73.009756    36.425588          120   -12266.068   -11032.067   -56647.762   -566.36654   -2251.5404   -4018.6777    73.009755    63.228303    36.425588   -26648.632   -309950.66 
    2500    862.15625    168137.19    73.007782    73.007782    36.424603          120   -12484.961   -11305.067   -57787.288   -559.26014   -2347.7958   -4034.9873    73.007782    63.226594    36.424603   -27192.439   -309956.12 
    2510    863.43979    168123.58    73.005812    73.005812    36.423621          120   -12680.596   -11561.221   -58939.995   -575.71335   -2436.1577   -4063.1439    73.005812    63.224888    36.423621   -27727.271   -309961.75 
    2520    864.78977    168109.99    73.003845    73.003846     36.42264          120   -12855.191   -11807.367   -60104.945   -610.70323   -2521.1927   -4095.3526    73.003845    63.223185     36.42264   -28255.834   -309967.55 
    2530    866.31164    168096.43    73.001882    73.001883     36.42166          120   -13014.548   -12054.072   -61282.174   -665.67106    -2593.866   -4125.5183    73.001882    63.221485     36.42166   -28783.598   -309973.53 
    2540    868.02838    168082.89    72.999922    72.999923    36.420682          120   -13171.179   -12313.963   -62492.035   -739.48183   -2645.6442   -4150.5017    72.999922    63.219788    36.420682   -29325.726   -309980.09 
    2550    869.83195    168069.37    72.997965    72.997965    36.419706          120   -13326.947   -12578.999   -63736.281   -824.18124   -2681.2156   -4163.9159    72.997965    63.218093    36.419706   -29880.742    -309986.9 
    2560     871.4982    168055.87     72.99601     72.99601     36.41873          120   -13471.358   -12847.886   -64999.615   -898.48659   -2710.2589   -4162.7323     72.99601    63.216399     36.41873    -30439.62   -309993.41 
    2570    872.74703    168042.38    72.994056    72.994057    36.417756          120   -13594.047    -13120.56   -66279.172   -948.79429   -2736.5906   -4140.9092    72.994056    63.214708    36.417756   -30997.926   -309999.27 
    2580     873.3033     168028.9    72.992105    72.992106    36.416782          120   -13688.336   -13377.093   -67553.513   -967.88526   -2771.1079   -4094.8203    72.992105    63.213018    36.416782   -31539.648   -310003.76 
    2590    872.94196    168015.43    72.990155    72.990156    36.415809          120   -13755.821   -13610.781   -68796.781   -955.18162   -2808.6179   -4030.2949    72.990155    63.211329    36.415809   -32054.461    -310006.5 
    2600    871.54789    168001.98    72.988206    72.988207    36.414837          120    -13785.71    -13816.75   -70006.712   -901.81451   -2843.7496   -3950.7648    72.988206    63.209641    36.414837   -32536.391   -310007.35 
    2610    869.16426    167988.52    72.986258    72.986259    36.413865          120   -13779.786   -13979.205   -71169.583   -829.99557    -2883.181   -3850.9995    72.986258    63.207954    36.413865   -32976.191   -310006.18 
    2620    866.00363    167975.08    72.984311    72.984312    36.412894          120   -13743.445    -14105.91   -72281.033   -732.64646   -2908.6972   -3745.0299    72.984311    63.206268    36.412894   -33376.796   -310003.43 
    2630    862.40886    167961.64    72.982364    72.982365    36.411922          120   -13699.646   -14202.836    -73362.47   -630.17371   -2903.0087   -3651.4666    72.982364    63.204582    36.411922   -33754.984   -310000.19 
    2640    858.78596     167948.2    72.980418    72.980418    36.410951          120   -13633.499   -14267.084   -74408.629   -527.69363   -2863.8919   -3567.9819    72.980418    63.202896    36.410951   -34103.071   -309996.46 
    2650    855.52176    167934.76    72.978471    72.978472     36.40998          120   -13557.639   -14307.334   -75445.566   -427.17979   -2795.8077   -3512.1436    72.978471    63.201211     36.40998   -34436.846   -309993.27 
    2660    852.91032    167921.32    72.976524    72.976525    36.409009          120    -13490.72   -14349.264   -76486.353   -333.26069   -2696.1007   -3484.9321    72.976524    63.199525    36.409009   -34775.446   -309991.63 
    2670    851.09172    167907.88    72.974577    72.974578    36.408037          120   -13430.958   -14391.619    -77519.23   -243.94964   -2580.4448   -3477.1159    72.974577    63.197839    36.408037   -35113.936   -309991.47 
    2680    849.99557    167894.44     72.97263     72.97263    36.407066          120   -13387.241   -14438.457    -78532.79   -167.03256   -2461.6757   -3482.0812     72.97263    63.196152    36.407066   -35452.829    -309992.8 
    2690    849.33617    167880.99    72.970682    72.970682    36.406094          120   -13355.995   -14479.673   -79502.036   -100.43911   -2350.5964   -3491.2892    72.970682    63.194465    36.406094   -35779.235   -309994.91 
    2700    848.69041    167867.54    72.968732    72.968733    36.405121          120   -13334.294   -14508.935   -80406.301   -52.278194   -2262.6785   -3490.8349    72.968732    63.192777    36.405121   -36083.177   -309997.11 
    2710    847.63998    167854.08    72.966782    72.966783    36.404148          120   -13313.001    -14518.65    -81215.84   -26.597268   -2200.9062   -3464.5619    72.966782    63.191088    36.404148   -36349.164   -309998.43 
    2720    845.91655    167840.61    72.964831    72.964831    36.403175          120   -13293.088   -14501.269   -81927.971   -25.966291   -2160.2404   -3409.5478    72.964831    63.189398    36.403175   -36574.109    -309998.5 
    2730    843.46809    167827.14    72.962878    72.962879      36.4022          120   -13270.857    -14446.86   -82543.717   -51.361661   -2134.9351   -3322.4352    72.962878    63.187707      36.4022   -36753.811   -309997.11 
    2740    840.44743    167813.65    72.960924    72.960924    36.401225          120   -13242.592   -14364.052   -83069.711   -92.177447   -2118.0771   -3209.9971    72.960924    63.186014    36.401225   -36892.118   -309994.52 
    2750    837.15829    167800.16    72.958968    72.958969     36.40025          120   -13205.654   -14263.782   -83519.391   -144.06642   -2101.2345   -3085.1042    72.958968     63.18432     36.40025   -36996.276   -309991.29 
    2760    833.97956    167786.65    72.957011    72.957011    36.399273          120    -13162.75   -14162.562   -83903.086   -192.85019   -2069.0931   -2952.6388    72.957011    63.182625    36.399273   -37076.133   -309988.29 
    2770    831.25597    167773.14    72.955052    72.955052    36.398296          120   -13112.144   -14059.372   -84225.699   -234.62242   -2023.0434   -2829.6166    72.955052    63.180929    36.398296   -37132.405   -309986.06 
    2780    829.18416    167759.61    72.953091    72.953091    36.397317          120   -13064.118   -13966.649   -84480.887   -264.32414   -1972.9677   -2716.0508    72.953091    63.179231    36.397317   -37170.551   -309985.36 
    2790      827.771    167746.07    72.951128    72.951129    36.396338          120   -12989.176   -13864.326   -84651.333    -277.8851   -1915.1259   -2607.8143    72.951128    63.177531    36.396338   -37168.278   -309985.74 
    2800    826.88217    167732.52    72.949164    72.949164    36.395358          120   -12888.047   -13746.632   -84719.072   -282.32053    -1851.617   -2512.5564    72.949164     63.17583    36.395358   -37117.917   -309987.23 
    2810    826.34482    167718.96    72.947197    72.947198    36.394377          120   -12746.054    -13591.58   -84660.085   -277.54537   -1792.5073   -2427.6493    72.947197    63.174127    36.394377   -36999.239   -309989.22 
    2820    826.02171    167705.38    72.945229     72.94523    36.393395          120   -12557.862   -13394.434   -84491.581   -267.01274   -1740.9889   -2355.0103    72.945229    63.172422    36.393395   -36814.626   -309991.96 
    2830    825.82302    167691.79    72.943259     72.94326    36.392412          120   -12314.894   -13124.241   -84191.968    -254.6317   -1703.9016   -2299.3454    72.943259    63.170716    36.392412   -36543.701    -309994.6 
    2840    825.67517     167678.2    72.941288    72.941288    36.391429          120    -12016.76   -12789.317    -83777.29   -241.65314   -1681.5862    -2269.961    72.941288    63.169009    36.391429   -36194.456   -309997.32 
    2850    825.50644    167664.59    72.939314    72.939315    36.390444          120   -11680.618   -12390.153   -83251.986    -228.5451   -1674.5882   -2263.9497    72.939314      63.1673    36.390444   -35774.252   -310000.08 
    2860    825.26436    167650.97     72.93734     72.93734    36.389459          120   -11303.803   -11931.443   -82619.652   -219.41654    -1691.596   -2288.8764     72.93734     63.16559    36.389459   -35284.966   -310002.48 
    2870    824.96567    167637.34    72.935363    72.935364    36.388473          120    -10906.63   -11426.317   -81910.163   -209.90549   -1722.9076   -2332.7291    72.935363    63.163878    36.388473   -34747.703   -310004.94 
    2880    824.70849    167623.71    72.933386    72.933387    36.387487          120   -10504.322   -10893.185   -81120.313   -204.23608   -1758.8066   -2395.1855    72.933386    63.162166    36.387487   -34172.607   -310007.36 
    2890    824.64372    167610.07    72.931408    72.931409      36.3865          120   -10108.926    -10354.38   -80282.571   -195.03729   -1805.4791   -2475.6021    72.931408    63.160453      36.3865   -33581.959   -310010.26 
    2900    824.91097    167596.43    72.929429     72.92943    36.385512          120   -9745.4124     -9834.49   -79408.691   -188.14878   -1846.7999   -2563.7692    72.929429    63.158739    36.385512   -32996.198   -310014.07 
    2910     825.5757    167582.78     72.92745     72.92745    36.384525          120    -9402.729   -9343.1988   -78499.959   -179.63785   -1876.5119   -2659.7162     72.92745    63.157025    36.384525   -32415.296   -310018.54 
    2920     826.5962    167569.13     72.92547     72.92547    36.383537          120   -9076.3588   -8873.0787   -77567.198   -172.49527   -1901.9397   -2761.7845     72.92547     63.15531    36.383537   -31838.879   -310023.36 
    2930    827.82148    167555.48     72.92349     72.92349    36.382549          120   -8767.0624   -8442.6562   -76617.298   -169.15364   -1919.8123    -2853.526     72.92349    63.153595    36.382549   -31275.672   -310028.73 
    2940    829.03387    167541.84     72.92151     72.92151    36.381561          120   -8462.8892   -8044.8039   -75638.361   -166.16757   -1934.6169   -2937.0599     72.92151    63.151881    36.381561   -30715.351   -310034.06 
    2950    830.03255    167528.19     72.91953     72.91953    36.380573          120   -8157.2122    -7674.722   -74631.711   -158.52943   -1948.3709   -2993.2747     72.91953    63.150166    36.380573   -30154.548    -310039.2 
    2960    830.71349    167514.55     72.91755    72.917551    36.379586          120    -7833.405   -7317.7418   -73582.735   -153.73029   -1950.6645   -3026.5307     72.91755    63.148452    36.379586   -29577.961   -310043.48 
    2970    831.09258    167500.91    72.915572    72.915572    36.378599          120   -7499.9296   -6968.8072    -72505.75   -151.92312    -1948.339   -3029.5745    72.915572    63.146738    36.378599   -28991.496   -310047.26 
    2980    831.26555    167487.28    72.913593    72.913594    36.377612          120   -7152.8934   -6633.7861   -71394.652   -150.06707    -1929.572    -2999.308    72.913593    63.145025    36.377612   -28393.777   -310050.62 
    2990    831.34069    167473.65    72.911616    72.911617    36.376625          120    -6798.629   -6304.7585   -70257.173   -146.35558   -1905.0189    -2931.578    72.911616    63.143313    36.376625   -27786.853    -310053.8 
    3000    831.37961    167460.04     72.90964    72.909641    36.375639          120   -6434.5747   -5981.3811   -69093.947   -146.45266    -1871.177   -2837.3044     72.90964    63.141601    36.375639   -27169.968   -310056.77 
    3010    831.39218    167446.43    72.907666    72.907666    36.374654          120   -6077.6281   -5669.8756    -67909.25   -143.82335   -1831.8505   -2716.1453    72.907666    63.139891    36.374654   -26552.251   -310059.84 
    3020     831.3468    167432.84    72.905692    72.905693     36.37367          120   -5721.4412   -5375.9975   -66702.861   -150.28601   -1790.5065   -2577.4872    72.905692    63.138182     36.37367   -25933.433   -310062.94 
    3030     831.1967    167419.25    72.903721    72.903722    36.372686          120   -5355.6619   -5096.5266   -65473.599   -164.18474   -1740.9644   -2438.3063    72.903721    63.136475    36.372686   -25308.596   -310065.67 
    3040    830.88684    167405.69    72.901752    72.901752    36.371704          120    -4999.108   -4830.6566   -64236.772    -188.8521   -1676.0534   -2300.0048    72.901752     63.13477    36.371704   -24688.846   -310068.24 
    3050    830.36283    167392.14    72.899785    72.899785    36.370722          120   -4647.2084   -4569.9165   -62987.441   -222.06793   -1599.9421   -2188.5778    72.899785    63.133066    36.370722   -24068.189   -310070.14 
    3060    829.58175     167378.6     72.89782     72.89782    36.369742          120   -4314.2767   -4329.6244   -61754.013     -262.078   -1511.8656   -2089.3352     72.89782    63.131364    36.369742   -23465.971   -310071.89 
    3070    828.53245    167365.09    72.895857    72.895858    36.368763          120   -3989.8721    -4097.423   -60511.518   -310.20348   -1416.9822   -2011.7794    72.895857    63.129665    36.368763   -22866.271   -310072.57 
    3080    827.25337    167351.59    72.893898    72.893899    36.367785          120   -3685.6176   -3878.7092   -59305.992   -356.12515   -1320.4988   -1941.4211    72.893898    63.127968    36.367785   -22290.106   -310072.92 
    3090    825.85263    167338.11    72.891941    72.891942    36.366809          120   -3412.6204   -3684.1107   -58140.809   -395.21957    -1219.024   -1882.3353    72.891941    63.126274    36.366809   -21745.847   -310073.31 
    3100    824.49588    167324.66    72.889988    72.889989    36.365835          120    -3154.041     -3503.61   -57015.767   -419.37898   -1124.3676   -1827.4492    72.889988    63.124582    36.365835   -21224.473   -310073.51 
    3110    823.33664    167311.23    72.888038    72.888038    36.364862          120   -2929.5839   -3333.1724   -55947.731   -424.13198   -1026.8068   -1768.9098    72.888038    63.122893    36.364862   -20736.829   -310074.19 
    3120     822.4424    167297.83    72.886091    72.886092     36.36389          120   -2726.2024   -3194.0592   -54914.348   -404.24496   -929.13447    -1708.065    72.886091    63.121207     36.36389   -20278.203   -310075.36 
    3130     821.7614    167284.45    72.884148    72.884149    36.362921          120   -2538.6858   -3077.8326   -53914.955   -362.46125   -831.04696    -1645.949    72.884148    63.119524    36.362921   -19843.825   -310077.05 
    3140    821.17702    167271.09    72.882209    72.882209    36.361953          120   -2360.4024   -2981.6201    -52921.14   -301.88965    -741.3378   -1585.7498    72.882209    63.117845    36.361953   -19421.054   -310078.76 
    3150    820.58656    167257.76    72.880273    72.880274    36.360988          120   -2189.9989   -2908.3123     -51931.3   -220.19118   -652.21346   -1529.6286    72.880273    63.116168    36.360988    -19009.87   -310080.49 
    3160    819.94333    167244.47    72.878341    72.878342    36.360024          120   -2024.8705   -2858.2502   -50950.349   -126.25952   -571.00289   -1488.1427    72.878341    63.114496    36.360024   -18611.156   -310082.22 
    3170    819.24049    167231.19    72.876414    72.876414    36.359062          120   -1860.4375    -2825.809   -49983.776   -25.629164   -497.21275   -1467.5894    72.876414    63.112826    36.359062   -18223.341   -310083.78 
    3180    818.47027    167217.95     72.87449    72.874491    36.358102          120   -1701.1218   -2807.9992   -49049.693    66.026022   -442.06402   -1463.9791     72.87449     63.11116    36.358102   -17852.938   -310085.23 
    3190    817.60476    167204.74    72.872571    72.872571    36.357145          120    -1555.588   -2806.3069   -48157.382    150.68934   -403.02584   -1474.7459    72.872571    63.109498    36.357145   -17506.426    -310086.6 
    3200     816.6267    167191.56    72.870656    72.870656     36.35619          120   -1426.6256   -2813.8234   -47322.143    220.24729   -390.34116   -1510.0138    72.870656     63.10784     36.35619   -17187.531    -310087.8 
    3210    815.56872    167178.41    72.868745    72.868746    36.355236          120   -1312.3263   -2816.8028   -46560.956    276.40995   -403.92451   -1556.4731    72.868745    63.106185    36.355236   -16896.695   -310088.65 
    3220    814.51915    167165.29    72.866839     72.86684    36.354285          120   -1211.4888   -2825.2271   -45885.169    316.32858   -455.98878   -1626.4825    72.866839    63.104535    36.354285   -16640.628   -310089.46 
    3230    813.57495    167152.21    72.864938    72.864939    36.353337          120   -1128.9777   -2828.3012   -45322.156    335.66896   -528.72905   -1718.0993    72.864938    63.102888    36.353337   -16426.478   -310090.53 
    3240    812.77317    167139.15    72.863041    72.863042     36.35239          120    -1051.975   -2829.0444   -44861.947    335.16802   -622.11814   -1826.1818    72.863041    63.101245     36.35239   -16247.656   -310091.68 
    3250    812.05506    167126.13    72.861149     72.86115    36.351446          120   -987.05593   -2822.6614   -44510.057    314.51078   -728.86202   -1940.1312    72.861149    63.099607    36.351446   -16106.592    -310093.1 
    3260    811.29696    167113.14    72.859261    72.859262    36.350505          120   -928.52908   -2797.1771   -44255.851    281.44536   -846.29324   -2064.0727    72.859261    63.097972    36.350505   -15993.852   -310094.45 
    3270    810.37489    167100.19    72.857379    72.857379    36.349565          120   -878.24335   -2746.6807   -44076.136    242.90615   -963.93927   -2183.5697    72.857379    63.096341    36.349565   -15900.353   -310095.43 
    3280    809.23061    167087.26      72.8555    72.855501    36.348628          120   -844.89477    -2664.246   -43964.728    206.61448   -1080.6742   -2294.9567      72.8555    63.094715    36.348628   -15824.623   -310096.01 
    3290    807.89634    167074.37    72.853627    72.853627    36.347693          120   -825.49685   -2560.6525   -43899.295     185.3673   -1188.5649   -2394.5871    72.853627    63.093092    36.347693   -15761.815   -310096.04 
    3300    806.47883    167061.52    72.851758    72.851758    36.346761          120   -841.91247   -2448.7808    -43881.26    184.97244    -1289.743   -2482.8771    72.851758    63.091473    36.346761   -15723.984   -310096.14 
    3310    805.12063    167048.69    72.849893    72.849894    36.345831          120   -883.64327   -2344.5744   -43904.633    211.86746   -1376.8467   -2559.3256    72.849893    63.089859    36.345831    -15710.95   -310096.26 
    3320     803.9515     167035.9    72.848033    72.848034    36.344903          120   -959.20707   -2263.8168    -43986.01    255.32666    -1451.642    -2623.923    72.848033    63.088248    36.344903   -15736.345   -310096.93 
    3330    803.07573    167023.13    72.846178    72.846178    36.343977          120    -1075.236   -2209.2884   -44120.913    330.44822   -1493.6252   -2673.8201    72.846178    63.086641    36.343977   -15801.812   -310098.15 
    3340     802.5755     167010.4    72.844327    72.844328    36.343054          120   -1237.1822   -2188.4918   -44320.468    412.64067    -1510.631   -2704.3197    72.844327    63.085038    36.343054   -15915.381   -310100.17 
    3350    802.49565     166997.7     72.84248    72.842481    36.342132          120   -1437.8427   -2182.8696   -44587.676    497.11677    -1493.326    -2716.035     72.84248    63.083439    36.342132   -16069.463   -310102.66 
    3360    802.80263    166985.03    72.840638    72.840639    36.341213          120   -1681.0699    -2207.826   -44945.066    579.07275   -1447.8228   -2712.9769    72.840638    63.081844    36.341213   -16277.987   -310106.17 
    3370     803.3527    166972.39      72.8388    72.838801    36.340296          120   -1949.4035   -2252.2049   -45381.187    642.24912   -1389.3485   -2688.3269      72.8388    63.080252    36.340296   -16527.598   -310110.12 
    3380    803.92673    166959.78    72.836966    72.836966    36.339381          120   -2223.0355   -2305.8063    -45883.35    686.83578   -1326.6266   -2650.5222    72.836966    63.078663    36.339381   -16804.064   -310114.04 
    3390    804.31935    166947.19    72.835136    72.835136    36.338468          120   -2486.9027   -2371.0487    -46449.88    718.46915   -1270.4465   -2611.6869    72.835136    63.077078    36.338468    -17102.61    -310117.7 
    3400    804.43965    166934.63    72.833309     72.83331    36.337557          120   -2732.3453   -2425.7398   -47072.368    739.03042    -1231.483   -2572.5228    72.833309    63.075497    36.337557   -17410.151   -310120.68 
    3410    804.37315     166922.1    72.831486    72.831487    36.336647          120   -2967.4001   -2473.3395   -47765.276    750.97744   -1210.4841   -2529.5929    72.831486    63.073918    36.336647   -17735.338    -310123.5 
    3420    804.34946    166909.59    72.829667    72.829668     36.33574          120   -3182.7952   -2514.3456   -48529.543    769.94578   -1212.6655   -2497.1257    72.829667    63.072343     36.33574   -18075.561    -310126.2 
    3430    804.63749     166897.1    72.827851    72.827852    36.334834          120   -3397.0032   -2553.4139   -49386.191    788.47634   -1229.2889   -2473.3052    72.827851     63.07077    36.334834   -18445.536   -310129.59 
    3440    805.38391    166884.64    72.826038    72.826039    36.333929          120   -3599.4165   -2591.2803   -50344.741    809.58333   -1256.7992   -2456.3776    72.826038      63.0692    36.333929   -18845.146   -310133.81 
    3450    806.51058     166872.2    72.824228    72.824229    36.333026          120   -3791.0006   -2629.9013   -51397.347    834.08411   -1289.5104   -2447.2041    72.824228    63.067632    36.333026    -19272.75   -310138.81 
    3460    807.73696    166859.77    72.822421    72.822421    36.332124          120   -3946.7853   -2664.3582   -52522.566    856.98396   -1327.5016   -2430.5393    72.822421    63.066067    36.332124   -19711.237   -310143.75 
    3470    808.73827    166847.37    72.820616    72.820617    36.331224          120   -4083.0092   -2696.5863   -53692.161    874.38212   -1365.4505   -2405.0852    72.820616    63.064504    36.331224   -20157.252   -310148.38 
    3480     809.2931    166834.98    72.818814    72.818814    36.330325          120   -4198.1917   -2742.2541   -54885.009      877.129   -1402.8018   -2370.8787    72.818814    63.062943    36.330325   -20608.485   -310152.57 
    3490    809.34353    166822.61    72.817014    72.817014    36.329427          120    -4276.541   -2778.5247   -56068.796    867.19552   -1449.2302   -2321.6773    72.817014    63.061384    36.329427   -21041.287   -310155.32 
    3500    808.96731    166810.25    72.815216    72.815216     36.32853          120   -4344.0395   -2821.9715   -57253.218    839.36468   -1495.2574   -2269.5895    72.815216    63.059827     36.32853   -21473.076   -310157.46 
    3510    808.32148    166797.91    72.813419     72.81342    36.327633          120   -4402.8743   -2881.8227   -58423.348    798.34588   -1535.7239   -2220.6085    72.813419    63.058271    36.327633   -21902.682   -310159.06 
    3520    807.57934    166785.57    72.811625    72.811625    36.326738          120   -4465.2633   -2955.5793   -59577.587    755.87974    -1577.987   -2182.8591    72.811625    63.056717    36.326738    -22332.81   -310160.39 
    3530    806.87804    166773.25    72.809831    72.809832    36.325843          120   -4542.1818   -3041.8273   -60727.991    718.14604   -1617.7196   -2151.9834    72.809831    63.055164    36.325843   -22770.667   -310161.91 
    3540    806.27761    166760.94     72.80804     72.80804    36.324949          120   -4637.1143   -3131.9995   -61856.614     681.5287   -1646.7077   -2125.5269     72.80804    63.053613    36.324949   -23208.576   -310163.59 
    3550    805.75254    166748.63    72.806249    72.806249    36.324056          120   -4740.7005   -3218.9571   -62957.191    647.14865   -1666.1654   -2104.5267    72.806249    63.052062    36.324056    -23638.95   -310165.33 
    3560    805.22619    166736.34    72.804459    72.804459    36.323163          120    -4858.454   -3293.7576   -64011.365    609.17275   -1671.5414   -2085.5822    72.804459    63.050512    36.323163   -24054.526   -310167.04 
    3570    804.61422    166724.04     72.80267     72.80267     36.32227          120     -4985.51   -3358.4691   -65015.302     567.2922   -1665.2251   -2068.9942     72.80267    63.048962     36.32227   -24453.094   -310168.92 
    3580    803.83704    166711.76    72.800881    72.800882    36.321378          120   -5103.4228   -3404.3003   -65941.374     523.8717   -1651.6818   -2053.1177    72.800881    63.047413    36.321378   -24816.366   -310170.43 
    3590    802.82016    166699.47    72.799093    72.799094    36.320486          120   -5200.1598    -3425.257   -66771.765    475.16852   -1636.6099    -2051.914    72.799093    63.045865    36.320486   -25132.394   -310171.27 
    3600    801.50357    166687.19    72.797306    72.797306    36.319594          120      -5273.8     -3421.59   -67502.863    421.69598    -1635.324   -2064.2833    72.797306    63.044317    36.319594   -25399.418   -310171.51 
    3610    799.85328    166674.92    72.795518    72.795519    36.318702          120   -5302.6823   -3406.2176    -68132.19    363.85055   -1655.3005   -2085.8456    72.795518    63.042769    36.318702   -25613.697   -310171.17 
    3620    797.87823    166662.64    72.793731    72.793732    36.317811          120   -5293.4109   -3371.3032   -68658.324    297.46385   -1694.2627   -2111.4396    72.793731    63.041221    36.317811   -25774.346   -310170.32 
    3630    795.64217    166650.36    72.791944    72.791944    36.316919          120   -5240.5427   -3318.0475    -69076.99    231.11644   -1756.9583   -2136.7791    72.791944    63.039673    36.316919   -25878.527   -310168.94 
    3640    793.26969    166638.09    72.790157    72.790157    36.316027          120   -5141.5504   -3242.6787   -69402.438    165.27133   -1840.1179   -2170.0904    72.790157    63.038125    36.316027   -25928.889   -310167.27 
    3650    790.93753    166625.82     72.78837     72.78837    36.315136          120    -5006.077   -3148.2242   -69646.567    99.913914    -1943.549   -2208.0476     72.78837    63.036578    36.315136   -25933.623    -310165.7 
    3660    788.85249    166613.54    72.786582    72.786583    36.314244          120   -4839.1479   -3033.0113   -69816.047    44.045789   -2069.2159   -2255.2621    72.786582     63.03503    36.314244   -25896.069    -310164.4 
    3670    787.19935    166601.27    72.784795    72.784796    36.313353          120   -4660.9345   -2904.2763   -69929.643   -6.1618621   -2211.0102   -2316.4947    72.784795    63.033483    36.313353   -25831.618   -310164.05 
    3680    786.08382       166589    72.783008    72.783009    36.312461          120   -4475.0467    -2766.307   -69987.093   -46.075394   -2361.3247   -2380.8304    72.783008    63.031935    36.312461   -25742.816   -310164.72 
    3690    785.48589    166576.73    72.781222    72.781222     36.31157          120   -4280.0555   -2623.4986   -69983.073   -80.775802   -2519.3675   -2440.6907    72.781222    63.030387     36.31157   -25628.876   -310166.19 
    3700    785.26338    166564.46    72.779435    72.779435    36.310678          120   -4083.6687    -2469.977   -69917.995   -102.51139   -2674.3585   -2489.8065    72.779435     63.02884    36.310678   -25490.547   -310168.36 
    3710    785.21365     166552.2    72.777648    72.777649    36.309787          120   -3887.9461   -2315.3274   -69790.009   -123.62266   -2830.5127   -2528.7431    72.777648    63.027293    36.309787   -25331.094   -310171.09 
    3720    785.17485    166539.94    72.775862    72.775863    36.308896          120    -3681.489    -2156.842   -69595.656     -143.641   -2985.1347   -2557.0915    72.775862    63.025746    36.308896   -25144.662   -310173.95 
    3730    785.09459    166527.68    72.774076    72.774077    36.308005          120    -3461.157    -1978.706   -69337.781   -161.19255   -3136.9952   -2571.3683    72.774076    63.024199    36.308005   -24925.881   -310176.59 
    3740    785.02676    166515.42    72.772291    72.772291    36.307114          120   -3221.5032    -1783.515   -69030.174   -186.32666    -3283.352   -2585.0638    72.772291    63.022653    36.307114   -24678.397   -310179.09 
    3750    785.06766    166503.17    72.770506    72.770506    36.306223          120   -2979.5547   -1577.1919   -68695.994   -223.47679   -3417.5283   -2595.0221    72.770506    63.021107    36.306223    -24417.58      -310182 
    3760    785.29524    166490.92    72.768721    72.768722    36.305333          120   -2737.8557   -1356.6035   -68340.854    -268.2582   -3532.9988    -2610.631    72.768721    63.019562    36.305333   -24145.104   -310185.28 
    3770    785.72399    166478.68    72.766938    72.766938    36.304443          120    -2492.653   -1122.1429   -67956.877   -314.81613   -3622.7408   -2626.1025    72.766938    63.018017    36.304443   -23857.224   -310188.71 
    3780    786.28314    166466.44    72.765155    72.765155    36.303554          120   -2252.5769   -877.64783   -67551.932    -365.5637   -3687.3062    -2634.528    72.765155    63.016473    36.303554   -23560.719   -310192.53 
    3790    786.83147    166454.21    72.763373    72.763373    36.302665          120   -2018.1427   -608.69616   -67120.043   -403.59982   -3710.9036   -2635.0404    72.763373     63.01493    36.302665   -23248.961   -310196.35 
    3800    787.20432    166441.99    72.761592    72.761593    36.301776          120   -1778.3839   -328.61577   -66640.219    -437.4622   -3698.3035   -2623.3372    72.761592    63.013388    36.301776   -22915.739   -310199.91 
    3810    787.27792    166429.78    72.759812    72.759813    36.300888          120   -1516.6209   -33.922042   -66103.673   -463.41983   -3643.4928   -2597.6859    72.759812    63.011847    36.300888   -22551.405   -310202.79 
    3820    787.02792    166417.57    72.758034    72.758035    36.300001          120   -1237.1133    258.39232   -65508.874   -491.88649   -3565.8802   -2555.3202    72.758034    63.010307    36.300001   -22162.532   -310205.24 
    3830    786.53451    166405.38    72.756257    72.756258    36.299114          120   -928.68878    561.17758   -64858.723   -522.37711    -3468.003   -2504.8275    72.756257    63.008768    36.299114   -21742.078      -310207 
    3840    785.93296     166393.2    72.754482    72.754483    36.298229          120   -594.46598    841.30309    -64151.97   -563.39971   -3357.4427    -2436.198    72.754482     63.00723    36.298229   -21301.711   -310208.59 
    3850    785.33823    166381.03    72.752709    72.752709    36.297344          120   -247.36055    1100.1117   -63399.748   -624.45059   -3243.6917   -2356.6739    72.752709    63.005695    36.297344   -20848.999   -310210.17 
    3860    784.80155    166368.88    72.750937    72.750938     36.29646          120    117.58975    1345.3596   -62615.285   -702.39301   -3131.7684   -2275.2675    72.750937     63.00416     36.29646   -20384.112   -310211.64 
    3870    784.30739    166356.74    72.749168    72.749169    36.295577          120    478.82837    1561.8612   -61811.725   -795.13465   -3023.9961   -2191.1938    72.749168    63.002628    36.295577   -19923.679    -310213.5 
    3880    783.78876    166344.62    72.747401    72.747401    36.294696          120    837.20285    1762.3158   -60979.446   -895.24596   -2918.8187    -2107.439    72.747401    63.001098    36.294696   -19459.976   -310215.23 
    3890    783.14924    166332.52    72.745636    72.745637    36.293816          120    1192.5982    1947.1909   -60126.762   -992.47462   -2812.9385   -2030.9721    72.745636     62.99957    36.293816   -18995.658   -310216.72 
    3900    782.30534    166320.43    72.743874    72.743875    36.292937          120    1560.0745    2120.0846   -59256.783   -1074.3102   -2706.7303   -1948.2882    72.743874    62.998044    36.292937   -18525.541    -310217.7 
    3910    781.22841    166308.37    72.742115    72.742116    36.292059          120     1928.497    2272.4149   -58362.535   -1135.5468   -2588.0054   -1866.2961    72.742115     62.99652    36.292059   -18053.874   -310218.23 
    3920    779.95643    166296.32    72.740359     72.74036    36.291183          120    2297.4352    2411.4408   -57460.025   -1168.6713   -2455.8675   -1784.0783    72.740359       62.995    36.291183   -17583.716   -310218.49 
    3930    778.58005     166284.3    72.738606    72.738607    36.290308          120    2664.9119    2540.7416   -56554.192   -1177.4961   -2307.9587   -1699.4719    72.738606    62.993482    36.290308    -17116.18   -310218.62 
    3940      777.227     166272.3    72.736857    72.736857    36.289435          120    3030.5615    2678.2228   -55642.531   -1160.9394   -2150.9064   -1629.5897    72.736857    62.991966    36.289435   -16644.582   -310218.48 
    3950    776.03248    166260.33     72.73511    72.735111    36.288564          120     3380.028    2813.8283   -54733.674   -1124.1162   -1988.6312   -1574.9223     72.73511    62.990454    36.288564   -16179.939   -310218.71 
    3960    775.09252    166248.38    72.733368    72.733369    36.287695          120    3712.9987    2966.1691   -53843.072    -1072.832   -1840.7423   -1538.0122    72.733368    62.988945    36.287695   -15721.301   -310219.48 
    3970     774.4182    166236.45    72.731629     72.73163    36.286827          120     4036.557    3137.7105   -52968.068    -1011.379   -1717.1868   -1518.1015    72.731629    62.987439    36.286827     -15264.6   -310220.77 
    3980    773.94134    166224.56    72.729895    72.729895    36.285962          120    4346.7856    3325.3545   -52099.351   -946.66902   -1619.7203   -1506.6513    72.729895    62.985937    36.285962    -14809.07   -310222.55 
    3990    773.56785    166212.69    72.728164    72.728164    36.285098          120    4648.6144    3528.9932   -51219.368   -870.87639   -1549.9648   -1489.0286    72.728164    62.984438    36.285098   -14347.254   -310224.46 
    4000    773.23166    166200.86    72.726438    72.726438    36.284237          120    4958.6677    3740.0334   -50321.618   -792.68419   -1488.9892   -1460.8985    72.726438    62.982943    36.284237   -13874.306   -310226.27 
    4010    772.91137    166189.05    72.724716    72.724716    36.283378          120    5264.1747    3948.6415   -49413.662   -722.00633   -1432.2322   -1414.2396    72.724716    62.981452    36.283378   -13400.282   -310228.19 
    4020    772.60694    166177.28    72.722998    72.722999    36.282521          120      5561.69    4144.8191   -48494.787   -652.78412    -1376.163    -1352.611    72.722998    62.979965    36.282521   -12929.426   -310230.21 
    4030    772.31635    166165.54    72.721286    72.721286    36.281667          120     5843.389    4331.5378   -47581.593   -581.03785    -1317.318   -1275.8075    72.721286    62.978482    36.281667   -12468.889   -310232.34 
    4040    772.05049    166153.84    72.719578    72.719579    36.280815          120    6113.7511     4507.838   -46675.051   -502.77235   -1253.5013   -1185.6271    72.719578    62.977003    36.280815   -12017.821   -310234.24 
    4050    771.86652    166142.17    72.717876    72.717876    36.279965          120    6347.6087    4669.6176   -45795.182   -412.76357   -1195.1314   -1087.8823    72.717876    62.975528    36.279965   -11592.652    -310236.3 
    4060    771.85138    166130.53    72.716178    72.716179    36.279119          120    6542.3716    4822.9491   -44970.238   -310.33097   -1133.9671   -984.85619    72.716178    62.974058    36.279119   -11201.639   -310238.75 
    4070    772.04203    166118.94    72.714486    72.714487    36.278274          120    6683.7393    4974.7373   -44206.632   -190.80284   -1080.9638   -880.89981    72.714486    62.972593    36.278274   -10849.385   -310241.69 
    4080    772.35429    166107.38      72.7128      72.7128    36.277433          120    6774.7533     5130.064   -43490.534   -51.075677   -1017.9784   -777.59042      72.7128    62.971133    36.277433   -10528.572   -310244.73 
    4090    772.58432    166095.86    72.711119    72.711119    36.276594          120      6827.66    5282.1472   -42809.032    92.067895   -951.32931   -685.62138    72.711119    62.969677    36.276594   -10233.075   -310247.62 
    4100    772.50013    166084.38    72.709444    72.709444    36.275758          120    6836.4274    5455.8653   -42152.483    235.49924   -878.25627   -603.20066    72.709444    62.968226    36.275758   -9953.3969    -310249.9 
    4110    771.96614    166072.93    72.707774    72.707774    36.274925          120    6807.0766    5641.2275   -41522.252    371.07465   -806.84528   -544.17143    72.707774     62.96678    36.274925   -9691.3161   -310251.71 
    4120    771.02437    166061.53     72.70611    72.706111    36.274095          120    6772.2507    5847.4176    -40914.72    496.65092   -734.50525   -502.12224     72.70611    62.965339    36.274095   -9431.6838   -310252.62 
    4130    769.87082    166050.17    72.704452    72.704452    36.273268          120    6738.6857    6067.3665   -40337.044    602.04161   -682.65278   -480.62252    72.704452    62.963903    36.273268   -9176.9973   -310252.78 
    4140    768.74609    166038.85      72.7028      72.7028    36.272444          120    6710.9485    6291.5049   -39829.533    682.28752    -657.1368    -484.0926      72.7028    62.962472    36.272444   -8942.3598   -310252.92 
    4150    767.83077    166027.57    72.701154    72.701154    36.271622          120    6672.9103    6497.7016   -39410.964    735.45758   -653.55489   -516.76975    72.701154    62.961047    36.271622   -8746.7839   -310253.81 
    4160    767.20833    166016.34    72.699514    72.699514    36.270804          120    6641.7096    6691.3468   -39102.069    760.54963   -671.79802   -583.51565    72.699514    62.959626    36.270804    -8589.671   -310255.21 
    4170    766.88583    166005.14    72.697879     72.69788    36.269989          120    6613.9972    6866.0614   -38900.487    763.14305    -703.0525   -688.62735    72.697879    62.958211    36.269989   -8473.4761   -310256.99 
    4180    766.81568    165993.99    72.696251    72.696252    36.269177          120    6584.3207    7008.3526    -38813.62     745.9565   -733.17955   -824.47277    72.696251    62.956801    36.269177   -8406.9821   -310259.31 
    4190    766.89635    165982.88     72.69463     72.69463    36.268368          120    6554.8649    7110.9202     -38825.1    710.72794     -756.414   -988.75931     72.69463    62.955397    36.268368   -8386.4383   -310261.87 
    4200    766.95646    165971.81    72.693014    72.693014    36.267561          120    6530.9024    7172.4243   -38915.868    650.23434   -773.06636   -1162.8009    72.693014    62.953997    36.267561   -8404.1805   -310264.26 
    4210    766.78032    165960.79    72.691404    72.691404    36.266758          120    6499.7891    7190.7122   -39069.659    570.55509   -777.56161   -1334.9411    72.691404    62.952603    36.266758   -8459.7192   -310266.46 
    4220     766.1712     165949.8      72.6898      72.6898    36.265958          120    6475.4319    7168.6356   -39248.063    474.25169   -781.84128   -1493.3742      72.6898    62.951214    36.265958   -8534.6651   -310267.79 
    4230    765.02694    165938.86    72.688202    72.688202    36.265161          120    6456.0145    7120.0901   -39426.824    353.33711   -795.60004   -1622.8728    72.688202     62.94983    36.265161   -8616.9064   -310267.97 
    4240    763.38656    165927.95    72.686609     72.68661    36.264366          120    6447.2108    7037.8524   -39608.852    217.70165   -816.32846   -1719.2382    72.686609    62.948451    36.264366   -8707.9297   -310267.33 
    4250    761.43544    165917.09    72.685023    72.685024    36.263575          120    6436.1961    6936.5671     -39797.5    76.160464   -835.15467   -1794.3493    72.685023    62.947077    36.263575   -8808.2455   -310266.24 
    4260    759.47895    165906.26    72.683442    72.683443    36.262786          120    6423.3334    6812.9494   -39999.205   -64.050005   -856.58145   -1843.9971    72.683442    62.945708    36.262786    -8920.974   -310265.16 
    4270    757.86474    165895.48    72.681867    72.681868       36.262          120    6389.9202    6677.6367   -40238.721   -198.49315   -865.91909   -1869.8651    72.681867    62.944344       36.262   -9057.0547   -310264.76 
    4280    756.88865    165884.73    72.680298    72.680298    36.261217          120    6341.2595    6523.9199   -40516.932   -317.32055   -858.67405   -1873.3187    72.680298    62.942985    36.261217   -9217.2508    -310265.2 
    4290    756.71614    165874.02    72.678733    72.678734    36.260437          120    6260.9326    6339.0625   -40868.031   -415.36428   -847.32176   -1844.5561    72.678733     62.94163    36.260437   -9422.6786   -310267.38 
    4300     757.3542    165863.35    72.677175    72.677175    36.259659          120    6138.2956    6133.0434   -41288.687   -492.10088   -838.18532   -1789.9239    72.677175     62.94028    36.259659   -9672.4494   -310271.12 
    4310    758.66709    165852.71    72.675621    72.675622    36.258884          120     5978.384    5918.0792   -41801.477   -539.82261   -840.54997   -1704.2407    72.675621    62.938935    36.258884    -9968.338   -310276.22 
    4320    760.42458    165842.11    72.674073    72.674073    36.258111          120    5789.5351    5700.6682   -42393.926   -559.01936   -854.55266   -1592.2606    72.674073    62.937594    36.258111   -10301.241   -310282.14 
    4330     762.3603    165831.54    72.672529     72.67253    36.257341          120    5580.9801    5476.0134   -43042.373   -543.51779   -890.89654    -1464.358    72.672529    62.936257    36.257341   -10661.793   -310288.24 
    4340    764.24016    165821.01     72.67099    72.670991    36.256574          120    5362.4037    5242.3609   -43754.732   -496.89326   -943.49707   -1323.8843     72.67099    62.934925    36.256574   -11049.989   -310294.38 
    4350    765.89053    165810.51    72.669456    72.669457    36.255808          120     5147.958    4995.7581   -44504.591   -427.24334   -1013.9153   -1181.6204    72.669456    62.933596    36.255808   -11453.625   -310300.08 
    4360    767.19329    165800.04    72.667927    72.667927    36.255045          120    4952.8548     4740.041   -45269.985   -348.17595   -1095.8159   -1046.0789    72.667927    62.932271    36.255045    -11859.03   -310304.94 
    4370    768.04317     165789.6    72.666401    72.666402    36.254284          120    4757.9976    4469.4301   -46032.654   -267.37147   -1179.8745   -926.61363    72.666401     62.93095    36.254284   -12268.409   -310309.26 
    4380    768.32068    165779.18     72.66488     72.66488    36.253525          120    4595.9599    4205.4104   -46766.855   -195.70564   -1251.0569   -827.28844     72.66488    62.929633    36.253525   -12655.162   -310312.21 
    4390     767.9272     165768.8    72.663362    72.663363    36.252768          120    4461.2279    3948.9015   -47459.224   -142.04846   -1304.7648   -752.70164    72.663362    62.928318    36.252768   -13016.365   -310314.01 
    4400    766.85672    165758.44    72.661849    72.661849    36.252013          120    4363.7583    3722.0149   -48083.864   -102.61213   -1335.6183   -694.84933    72.661849    62.927007    36.252013   -13332.697   -310314.15 
    4410    765.23571     165748.1    72.660338    72.660339    36.251259          120    4291.3546    3526.0768   -48665.604   -86.040319   -1329.7122   -643.85882    72.660338      62.9257    36.251259   -13616.058   -310313.48 
    4420    763.28905    165737.79    72.658832    72.658832    36.250508          120    4236.3827    3369.0916   -49190.809   -95.398428   -1295.3102   -598.60105    72.658832    62.924395    36.250508   -13861.778   -310312.07 
    4430    761.27605    165727.51    72.657329    72.657329    36.249758          120    4177.4448    3238.8116   -49691.819   -124.07618   -1246.7548   -553.58162    72.657329    62.923093    36.249758   -14091.854   -310311.08 
    4440    759.44163    165717.24    72.655829    72.655829    36.249009          120    4124.0963     3149.774   -50158.737   -169.68974   -1186.4667   -508.42253    72.655829    62.921794    36.249009   -14294.956   -310310.12 
    4450    757.98363       165707    72.654332    72.654332    36.248262          120    4076.4099    3085.8509   -50606.802   -222.89881   -1133.9019   -453.90365    72.654332    62.920498    36.248262   -14481.514   -310309.65 
    4460    757.02779    165696.78    72.652838    72.652839    36.247517          120    4026.9716    3031.5325   -51054.096   -283.76723   -1094.8851   -393.17807    72.652838    62.919204    36.247517   -14665.197   -310310.16 
    4470    756.59136    165686.58    72.651347    72.651348    36.246773          120    3978.0403    2982.2438   -51514.117   -337.87368   -1062.2832    -330.9937    72.651347    62.917913    36.246773   -14851.278   -310311.85 
    4480     756.5725     165676.4     72.64986     72.64986    36.246031          120     3956.725     2923.204   -51987.809   -384.16857   -1040.4313   -260.62484     72.64986    62.916625    36.246031    -15035.96   -310314.47 
    4490    756.77794    165666.24    72.648375    72.648375     36.24529          120    3977.5741    2884.3209   -52457.667   -409.30821   -1019.2573   -201.70145    72.648375    62.915339     36.24529   -15198.591   -310317.13 
    4500     756.9879     165656.1    72.646892    72.646893    36.244551          120    4050.1685     2850.138   -52937.194    -413.2299   -994.90349   -163.74957    72.646892    62.914055    36.244551   -15345.629   -310320.05 
    4510    757.01194    165645.98    72.645413    72.645413    36.243813          120    4180.4311    2839.6199   -53394.879   -377.50805   -969.03287    -151.6263    72.645413    62.912774    36.243813   -15458.276   -310322.44 
    4520    756.71559    165635.88    72.643936    72.643937    36.243076          120    4365.2411    2850.3262   -53834.732    -312.6823   -940.98358   -168.05043    72.643936    62.911495    36.243076   -15539.721   -310324.48 
    4530     756.0233     165625.8    72.642462    72.642462     36.24234          120    4605.1868    2896.2539   -54229.002   -212.21435   -916.83308   -218.14631    72.642462    62.910218     36.24234   -15575.854    -310325.6 
    4540     754.9253    165615.73     72.64099    72.640991    36.241606          120    4885.6935    2985.9215   -54573.871   -78.204375   -895.69894   -294.32925     72.64099    62.908943    36.241606   -15567.419   -310325.79 
    4550     753.4787    165605.68    72.639521    72.639521    36.240873          120    5194.7657    3106.0504   -54875.415    72.535268   -887.11723   -385.19257    72.639521    62.907671    36.240873   -15524.866   -310325.47 
    4560    751.78461    165595.65    72.638054    72.638055    36.240141          120    5513.9586    3258.3924   -55125.327    232.78572   -889.40611   -493.59316    72.638054    62.906401    36.240141   -15450.992   -310324.64 
    4570    749.95276    165585.64     72.63659    72.636591    36.239411          120    5833.7342    3445.1666   -55340.348    394.93879   -908.20256   -606.31211     72.63659    62.905133    36.239411   -15353.816    -310323.5 
    4580    748.07419    165575.64    72.635129    72.635129    36.238682          120    6132.7419    3649.1527   -55520.556    547.36937   -939.87994   -718.94732    72.635129    62.903867    36.238682   -15246.221   -310322.44 
    4590    746.22417    165565.67     72.63367    72.633671    36.237954          120    6415.0631    3871.6247   -55664.905    688.27851   -989.64868   -835.23539     72.63367    62.902604    36.237954   -15126.072   -310321.28 
    4600    744.47289    165555.71    72.632214    72.632214    36.237227          120    6671.5855    4099.1991   -55772.947    811.17435    -1043.696   -942.49685    72.632214    62.901343    36.237227   -15000.721   -310320.24 
    4610    742.87587    165545.77     72.63076    72.630761    36.236502          120    6890.6968    4324.7682   -55845.543    919.52669   -1101.8478   -1050.8781     72.63076    62.900084    36.236502   -14876.693   -310319.62 
    4620    741.44498    165535.85     72.62931     72.62931    36.235779          120    7076.9958    4549.0449    -55883.74    1014.8879   -1164.9615   -1159.3761     72.62931    62.898828    36.235779   -14752.566   -310319.48 
    4630    740.13414    165525.95    72.627862    72.627862    36.235056          120    7252.9277    4778.1657    -55870.11     1103.905   -1231.9097   -1262.7009    72.627862    62.897574    36.235056   -14613.005   -310319.27 
    4640    738.86946    165516.07    72.626417    72.626417    36.234335          120     7424.532     5014.801   -55801.033    1191.3332   -1293.8294   -1358.5145    72.626417    62.896322    36.234335     -14453.9   -310318.98 
    4650    737.61571    165506.21    72.624974    72.624975    36.233615          120     7585.674    5249.1324   -55678.425     1282.458   -1352.5444    -1445.159    72.624974    62.895073    36.233615   -14281.206   -310319.05 
    4660    736.42504    165496.37    72.623535    72.623535    36.232897          120    7753.3146     5516.333   -55482.546     1381.347   -1398.7185   -1508.5416    72.623535    62.893827    36.232897   -14070.966   -310318.69 
    4670    735.42079    165486.55    72.622098    72.622099    36.232181          120    7921.4076    5780.2913   -55248.551    1489.7832   -1428.2697   -1549.9056    72.622098    62.892583    36.232181   -13848.951   -310319.13 
    4680    734.73024    165476.75    72.620665    72.620665    36.231466          120    8093.5092    6058.4348   -54973.153    1602.6944   -1438.8007    -1578.239    72.620665    62.891341    36.231466    -13607.07   -310320.13 
    4690    734.41426    165466.97    72.619235    72.619235    36.230752          120      8273.75    6350.1648   -54665.912    1713.5266   -1430.1323   -1589.7355    72.619235    62.890103    36.230752   -13347.332   -310321.75 
    4700    734.45548    165457.22    72.617807    72.617808     36.23004          120    8466.9165    6642.4559   -54347.491    1812.7441   -1401.9286   -1587.9712    72.617807    62.888867     36.23004   -13079.373   -310324.28 
    4710    734.79019    165447.48    72.616384    72.616384     36.22933          120    8675.0125     6943.622   -54010.671     1895.155   -1354.7339   -1577.6315    72.616384    62.887634     36.22933   -12797.345   -310327.26 
    4720    735.34469    165437.77    72.614963    72.614964    36.228621          120    8899.0479    7260.1907   -53661.658    1960.2755   -1294.7849   -1551.7778    72.614963    62.886403    36.228621   -12500.806   -310330.38 
    4730    736.05287    165428.09    72.613546    72.613547    36.227914          120    9118.5461    7563.5198   -53311.866    2003.4444   -1233.7117   -1515.2714    72.613546    62.885176    36.227914   -12209.933   -310334.18 
    4740    736.85667    165418.43    72.612133    72.612133    36.227209          120    9334.3468    7871.4142   -52958.095    2024.5379   -1181.2014   -1459.7654    72.612133    62.883952    36.227209   -11917.445    -310338.1 
    4750    737.69415    165408.79    72.610723    72.610723    36.226505          120    9555.0159    8169.0719   -52597.151    2020.7882   -1131.5828   -1390.2474    72.610723    62.882731    36.226505   -11624.355   -310341.93 
    4760    738.49564    165399.18    72.609317    72.609317    36.225804          120    9764.7272    8466.6792   -52217.473    1998.8486   -1098.0714   -1299.8004    72.609317    62.881513    36.225804   -11328.689   -310345.37 
    4770    739.18459     165389.6    72.607914    72.607915    36.225104          120    9947.4578    8734.0636   -51833.727    1958.4027   -1075.3576   -1183.0216    72.607914    62.880299    36.225104   -11050.735   -310349.12 
    4780    739.70319    165380.05    72.606516    72.606516    36.224406          120     10120.53    8991.1577   -51430.499    1896.8051   -1062.6667   -1047.8803    72.606516    62.879088    36.224406   -10772.937   -310352.36 
    4790    740.03959    165370.52    72.605121    72.605122    36.223711          120    10279.306    9236.2429   -51005.223    1823.8525    -1054.281   -894.39446    72.605121     62.87788    36.223711   -10496.558   -310355.21 
    4800    740.22045    165361.02    72.603731    72.603732    36.223017          120    10419.703    9462.8185   -50563.539     1738.938   -1045.2239   -731.23594    72.603731    62.876676    36.223017   -10227.006   -310357.97 
    4810    740.26652    165351.55    72.602345    72.602346    36.222325          120    10550.728    9688.3122   -50098.507    1651.6452   -1030.8633   -554.91858    72.602345    62.875476    36.222325   -9953.1558   -310360.25 
    4820    740.14863     165342.1    72.600963    72.600964    36.221636          120    10676.964     9911.136   -49625.969    1565.6552   -1012.1831   -378.22175    72.600963    62.874279    36.221636   -9679.2894   -310362.33 
    4830    739.78221    165332.69    72.599585    72.599586    36.220949          120    10798.077    10131.977    -49117.99    1467.5947   -988.27302   -200.67397    72.599585    62.873086    36.220949   -9395.9787    -310363.8 
    4840    739.06292    165323.31    72.598212    72.598213    36.220264          120    10905.375    10353.926   -48574.799    1376.0259   -947.72689   -27.126048    72.598212    62.871897    36.220264   -9105.1662   -310364.77 
    4850    737.90746    165313.96    72.596843    72.596844    36.219581          120    11005.079    10567.341   -47987.529    1277.7208   -893.35849    138.09158    72.596843    62.870711    36.219581   -8805.0362   -310365.02 
    4860    736.30202    165304.64    72.595479     72.59548      36.2189          120     11108.13    10783.119   -47337.869    1173.8505   -823.30996    286.11318    72.595479     62.86953      36.2189   -8482.2065   -310363.97 
    4870    734.32268    165295.35     72.59412     72.59412    36.218222          120    11196.657    10973.362   -46646.543     1066.678   -736.53608    409.18659     72.59412    62.868353    36.218222   -8158.8414   -310362.55 
    4880    732.13418     165286.1    72.592765    72.592766    36.217546          120    11275.415    11138.607   -45906.582    952.25118   -634.70973    502.12941    72.592765    62.867179    36.217546   -7830.8533   -310360.67 
    4890    729.94162    165276.88    72.591415    72.591416    36.216872          120    11341.786    11271.177   -45135.287     832.2433   -528.53622    562.61235    72.591415     62.86601    36.216872   -7507.4411   -310358.76 
    4900    727.93911    165267.69     72.59007    72.590071    36.216201          120    11404.193    11366.515   -44352.367     703.4958   -418.66337    604.33106     72.59007    62.864846    36.216201   -7193.8864   -310357.25 
    4910    726.27252    165258.54     72.58873    72.588731    36.215533          120    11464.658    11440.691   -43561.342    576.71475   -308.29192    625.57528     72.58873    62.863685    36.215533   -6885.3313   -310356.09 
    4920    725.01899    165249.43    72.587396    72.587396    36.214867          120    11532.274    11497.974   -42781.251    446.25592   -198.77976     639.4195    72.587396    62.862529    36.214867   -6583.6681   -310355.45 
    4930    724.19464    165240.35    72.586066    72.586067    36.214204          120    11584.885    11541.074   -42037.604     315.7939   -90.916409    650.61069    72.586066    62.861378    36.214204   -6303.8816    -310356.1 
    4940    723.78082     165231.3    72.584742    72.584742    36.213543          120    11641.943     11599.21   -41341.055    193.51511    13.987345    662.09735    72.584742    62.860231    36.213543   -6033.3005   -310357.49 
    4950     723.7252     165222.3    72.583423    72.583423    36.212885          120    11697.332    11683.745   -40690.968    81.649702      108.724    672.10539    72.583423    62.859089    36.212885   -5769.9637   -310359.51 
    4960    723.94684    165213.33    72.582109     72.58211     36.21223          120    11754.037    11805.569   -40111.659   -16.084994     197.8315    678.55214    72.582109    62.857951     36.21223   -5517.3509   -310362.11 
    4970     724.3325    165204.39    72.580801    72.580802    36.211577          120    11804.017    11963.295   -39592.151   -103.01828    268.46038    684.52075    72.580801    62.856819    36.211577   -5274.9465   -310364.98 
    4980      724.747     165195.5    72.579499      72.5795    36.210927          120    11853.501    12138.356     -39139.3   -184.38648    313.66353    680.45993    72.579499    62.855691    36.210927   -5049.1474   -310368.06 
    4990    725.03238    165186.65    72.578202    72.578203     36.21028          120    11912.416     12329.01   -38740.108   -254.81357    337.62498    671.40682    72.578202    62.854568     36.21028   -4832.8937   -310370.72 
    5000    725.02121    165177.83    72.576911    72.576912    36.209636          120     11958.73    12521.355   -38388.196     -322.779    340.20955    652.27023    72.576911    62.853449    36.209636    -4636.037   -310372.94 
Loop time of 1685.1 on 1 procs for 5000 steps with 14848 atoms

Performance: 0.026 ns/day, 936.167 hours/ns, 2.967 timesteps/s
100.0% CPU use with 1 MPI tasks x no OpenMP threads

MPI task timing breakdown:
Section |  min time  |  avg time  |  max time  |%varavg| %total
---------------------------------------------------------------
Pair    | 1527.9     | 1527.9     | 1527.9     |   0.0 | 90.67
Bond    | 0.0027807  | 0.0027807  | 0.0027807  |   0.0 |  0.00
Kspace  | 72.194     | 72.194     | 72.194     |   0.0 |  4.28
Neigh   | 40.649     | 40.649     | 40.649     |   0.0 |  2.41
Comm    | 1.8622     | 1.8622     | 1.8622     |   0.0 |  0.11
Output  | 0.068027   | 0.068027   | 0.068027   |   0.0 |  0.00
Modify  | 41.711     | 41.711     | 41.711     |   0.0 |  2.48
Other   |            | 0.7249     |            |       |  0.04

Nlocal:    14848 ave 14848 max 14848 min
Histogram: 1 0 0 0 0 0 0 0 0 0
Nghost:    46611 ave 46611 max 46611 min
Histogram: 1 0 0 0 0 0 0 0 0 0
Neighs:    9.96002e+06 ave 9.96002e+06 max 9.96002e+06 min
Histogram: 1 0 0 0 0 0 0 0 0 0

Total # of neighbors = 9960022
Ave neighs/atom = 670.799
Ave special neighs/atom = 0
Neighbor list builds = 121
Dangerous builds = 0
