LAMMPS (16 Mar 2018)
  using 1 OpenMP thread(s) per MPI task
# Find minimum energy for Beryl

#----- Initialize Simulation -----
clear
  using 1 OpenMP thread(s) per MPI task
units 		metal
boundary 	p p p
atom_style 	full
variable	etol equal 1e-25
variable 	ftol equal 1e-25
variable 	maxiter equal 5000
variable 	maxeval equal 10000

#----- Create Atoms -----
read_data 	mod/beryl_water_025.xyz
  triclinic box = (0 0 0) to (9.208 7.97436 18.376) with tilt (-4.604 0 0)
  1 by 1 by 1 MPI processor grid
  reading atoms ...
  119 atoms
  scanning bonds ...
  2 = max bonds/atom
  scanning angles ...
  1 = max angles/atom
  reading bonds ...
  2 bonds
  reading angles ...
  1 angles
  2 = max # of 1-2 neighbors
  1 = max # of 1-3 neighbors
  1 = max # of 1-4 neighbors
  2 = max # of special neighbors
replicate 	1  1  1
  triclinic box = (0 0 0) to (9.208 7.97436 18.376) with tilt (-4.604 0 0)
  1 by 1 by 1 MPI processor grid
  119 atoms
  2 bonds
  1 angles
  2 = max # of 1-2 neighbors
  1 = max # of 1-3 neighbors
  1 = max # of 1-4 neighbors
  2 = max # of special neighbors
  Time spent = 0.000428915 secs

#----- Define Interatomic Potential -----
include		mod/potential_main.mod
kspace_style    pppm 1.0e-4

# Neighbor Style
neighbor        0.3 bin
neigh_modify    delay 0 every 1 check yes

# Minimization style
min_style       cg

# Setup Output
thermo          10
thermo_style    custom  step temp vol cella cellb cellc cellgamma pxx pyy pzz pxy pxz pyz lx ly lz press pe #c_eatoms
thermo_modify   norm no
variable        myVol equal vol
variable        myCella equal cella
variable        myCellb equal cellb
variable        myCellc equal cellc
variable        myCellgamma equal cellgamma
include 	mod/potential_beryl.mod
# Potential Paramters
pair_style      hybrid/overlay morse 5.5 buck 5.5 lj/cut/coul/long 5.5 15.0
pair_coeff    1    1 morse                0            0           0  # Be Be
pair_coeff    1    1 buck                 0            1           -201.0
pair_coeff    1    1 lj/cut/coul/long     10120.        0.413
pair_coeff    1    2 morse                0            0           0  # Be Al
pair_coeff    1    2 buck                 0            1           0
pair_coeff    1    2 lj/cut/coul/long     0            0
pair_coeff    1    3 morse                0            0           0  # Al Si
pair_coeff    1    3 buck                 0            1           0
pair_coeff    1    3 lj/cut/coul/long     0            0
pair_coeff    1    4 morse                0.239919     2.527420    1.815405     #Be O
pair_coeff    1    4 buck                 0.000000     1.000000   -46.00000
pair_coeff    1    4 lj/cut/coul/long     529.000      0.528
pair_coeff    2    2 morse                0            0           0  # Al Al
pair_coeff    2    2 buck                 0            1           -492.
pair_coeff    2    2 lj/cut/coul/long     60423         0.356
pair_coeff    2    3 morse                0            0           0  # Al si
pair_coeff    2    3 buck                 0            1           0
pair_coeff    2    3 lj/cut/coul/long     0            0
pair_coeff    2    4 morse                0.361581     1.900442    2.164818     #Al O
pair_coeff    2    4 buck                 0.000000     1.000000   -71.5
pair_coeff    2    4 lj/cut/coul/long     1420.0        0.482
pair_coeff    3    3 morse                0            0           0  # Si Si
pair_coeff    3    3 buck                 0            1           -282.
pair_coeff    3    3 lj/cut/coul/long     19730         0.391
pair_coeff    3    4 morse                0.340554     2.006700    2.100000     #Si O
pair_coeff    3    4 buck                 0.000000     1.000000   -60.5
pair_coeff    3    4 lj/cut/coul/long     916.          0.504
pair_coeff    4    4 morse                0.042395     1.379316    3.618701  # O O
pair_coeff    4    4 buck                 0.000000     1.000000   -16.7
pair_coeff    4    4 lj/cut/coul/long     3.16          1.05
include 	mod/potential_water.mod
# Potential Paramters

pair_coeff    1    6 morse                0.           0.           0.                  # Ow Be
pair_coeff    1    6 buck                 0            1           -354.5
pair_coeff    1    6 lj/cut/coul/long     39.637        1.1435
pair_coeff    2    6 morse                0            0           0            # Ow Al
pair_coeff    2    6 buck                 0            1           -554.6
pair_coeff    2    6 lj/cut/coul/long     96.854        1.0616
pair_coeff    3    6 morse                0            0           0            # Ow Si
pair_coeff    3    6 buck                 0            1           -419.9
pair_coeff    3    6 lj/cut/coul/long     55.345        1.1126
pair_coeff    4    6 morse                0            0           0            # Ow O
pair_coeff    4    6 buck                 0            1           -102.9
pair_coeff    4    6 lj/cut/coul/long     0.70042       1.8233
pair_coeff    5    6 morse                0            0           0  # Hw Hw
pair_coeff    5    6 buck                 0            1           0
pair_coeff    5    6 lj/cut/coul/long     0.000       0.0
pair_coeff    6    6 morse                0            0           0            # Ow Ow
pair_coeff    6    6 buck                 0            1           -625.4
pair_coeff    6    6 lj/cut/coul/long     0.15525       3.166
pair_coeff    1    5 morse                0            0           0  # Hw Hw
pair_coeff    1    5 buck                 0            1           0
pair_coeff    1    5 lj/cut/coul/long     0.000       0.0
pair_coeff    2    5 morse                0            0           0  # Hw Hw
pair_coeff    2    5 buck                 0            1           0
pair_coeff    2    5 lj/cut/coul/long     0.000       0.0
pair_coeff    3    5 morse                0            0           0  # Hw Hw
pair_coeff    3    5 buck                 0            1           0
pair_coeff    3    5 lj/cut/coul/long     0.000       0.0
pair_coeff    4    5 morse                0            0           0  # Hw Hw
pair_coeff    4    5 buck                 0            1           0
pair_coeff    4    5 lj/cut/coul/long     0.000       0.0
pair_coeff    5    5 morse                0            0           0  # Hw Hw
pair_coeff    5    5 buck                 0            1           0
pair_coeff    5    5 lj/cut/coul/long     0.000       0.0



bond_style      harmonic
angle_style     harmonic
dihedral_style  none
improper_style  none

bond_coeff      1 1000.00 1.000
angle_coeff     1 100.0 109.47

#------ Define Settings -----

# ----- Run Minimization -----

fix BRX all box/relax iso 1.013

dump MIN all custom 1 min.lammpstrj id type element x y z ix iy iz

minimize	1e-6 1e-6 5000 10000 # Performs actual minimization
PPPM initialization ...
WARNING: System is not charge neutral, net charge = -0.002 (../kspace.cpp:302)
  using 12-bit tables for long-range coulomb (../kspace.cpp:321)
  G vector (1/distance) = 0.208163
  grid = 6 10 10
  stencil order = 5
  estimated absolute RMS force accuracy = 0.000576947
  estimated relative force accuracy = 4.00668e-05
  using double precision FFTs
  3d grid and FFT values/proc = 2475 600
Neighbor list info ...
  update every 1 steps, delay 0 steps, check yes
  max neighbors/atom: 2000, page size: 100000
  master list distance cutoff = 15.3
  ghost atom cutoff = 15.3
  binsize = 7.65, bins = 2 2 3
  3 neighbor lists, perpetual/occasional/extra = 3 0 0
  (1) pair morse, perpetual
      attributes: half, newton on
      pair build: half/bin/newton/tri
      stencil: half/bin/3d/newton/tri
      bin: standard
  (2) pair buck, perpetual, copy from (1)
      attributes: half, newton on
      pair build: copy
      stencil: none
      bin: none
  (3) pair lj/cut/coul/long, perpetual, copy from (1)
      attributes: half, newton on
      pair build: copy
      stencil: none
      bin: none
Per MPI rank memory allocation (min/avg/max) = 10.45 | 10.45 | 10.45 Mbytes
Step Temp Volume Cella Cellb Cellc CellGamma Pxx Pyy Pzz Pxy Pxz Pyz Lx Ly Lz Press PotEng 
       0            0    1349.3116        9.208    9.2080001       18.376          120    -203482.7   -203128.75   -275029.73     99.96019    598.74128    314.58432        9.208     7.974362       18.376   -227213.72   -2412.4897 
      10            0    1345.2677     9.198792    9.1987921    18.357624          120   -197483.96   -198117.41   -269061.01     674.2288    1889.9795   -192.03131     9.198792    7.9663876    18.357624   -221554.12   -2413.3423 
      20            0    1341.2319     9.189584    9.1895841    18.339248          120   -190342.44   -191961.66   -262722.59    1246.7981    3179.5801   -696.81998     9.189584    7.9584133    18.339248    -215008.9    -2413.888 
      30            0    1337.2041     9.180376    9.1803761    18.320872          120   -183228.52   -185832.87   -256531.68    1817.7291      4467.46   -1199.4533     9.180376    7.9504389    18.320872   -208531.02   -2414.4491 
      40            0    1333.1845     9.171168    9.1711681    18.302496          120   -175964.81   -179553.81   -250157.83    2386.4987    5752.8963   -1700.7919     9.171168    7.9424646    18.302496   -201892.15   -2414.9669 
      50            0    1329.1729      9.16196    9.1619601     18.28412          120   -168609.45   -173181.29   -243639.87     2953.126    7035.7918   -2199.6462      9.16196    7.9344902     18.28412   -195143.54   -2415.4608 
      60            0    1325.1694     9.152752    9.1527521    18.265744          120   -161303.21   -166854.81    -237459.1    3517.5024    8314.2132   -2695.1908     9.152752    7.9265158    18.265744   -188539.04   -2415.9799 
      70            0    1321.1739     9.143544    9.1435441    18.247368          120   -153844.39    -160374.6   -230891.94    4078.2061     9588.992   -3187.8731     9.143544    7.9185415    18.247368   -181703.64   -2416.4473 
      80            0    1317.1865     9.134336    9.1343361    18.228992          120   -146325.78   -153831.95   -224233.69    4635.7587    10859.063   -3676.9078     9.134336    7.9105671    18.228992   -174797.14   -2416.8958 
      90            0     1313.207     9.125128    9.1251281    18.210616          120   -138705.25   -147183.83   -217446.14    5189.6134    12123.316   -4162.3421     9.125128    7.9025927    18.210616   -167778.41   -2417.3227 
     100            0    1309.2357      9.11592    9.1159201     18.19224          120   -131234.95   -140681.49   -210615.23    5739.6004    13381.079   -4643.1094      9.11592    7.8946184     18.19224   -160843.89   -2417.7659 
     110            0    1305.2723     9.106712    9.1067121    18.173864          120   -123472.15   -133882.76   -203792.86    6284.0838    14631.303   -5119.5463     9.106712     7.886644    18.173864   -153715.92   -2418.1606 
     120            0    1301.3169     9.097504    9.0975041    18.155488          120   -115662.74   -127031.56   -196893.43    6822.7359    15872.354   -5590.2047     9.097504    7.8786697    18.155488   -146529.24   -2418.5391 
     130            0    1297.3695     9.088296    9.0882961    18.137112          120   -107755.84   -120076.58   -189922.12    7355.6569    17103.144   -6054.7113     9.088296    7.8706953    18.137112   -139251.51    -2418.898 
     140            0    1293.4302     9.079088    9.0790881    18.118736          120   -99797.738   -113062.64   -182827.37    7881.3188     18321.96    -6512.492     9.079088    7.8627209    18.118736   -131895.92   -2419.2372 
     150            0    1289.4988      9.06988    9.0698801     18.10036          120   -91775.398   -105974.91   -175720.98    8398.8171    19527.141   -6961.9479      9.06988    7.8547466     18.10036   -124490.43   -2419.5623 
     160            0    1285.5753     9.060672    9.0606721    18.081984          120   -83704.698   -98828.719   -168608.73    8906.6837    20715.569    -7401.711     9.060672    7.8467722    18.081984   -117047.38   -2419.8717 
     170            0    1281.6599     9.051464    9.0514641    18.063608          120   -75535.835   -91571.826   -161423.93    9403.3174    21885.453   -7831.3546     9.051464    7.8387978    18.063608   -109510.53   -2420.1604 
     180            0    1277.7524     9.042256    9.0422561    18.045232          120   -67350.956   -84283.023   -154137.34    9887.5207    23032.721   -8248.5902     9.042256    7.8308235    18.045232   -101923.77   -2420.4342 
     190            0    1273.8528     9.033048    9.0330481    18.026856          120   -59119.748   -76930.871   -146841.91    10356.714    24153.839   -8651.5237     9.033048    7.8228491    18.026856   -94297.509   -2420.6911 
     200            0    1269.9612      9.02384    9.0238401     18.00848          120   -50865.312   -69534.396      -139619    10808.087    25243.136   -9037.4369      9.02384    7.8148748     18.00848   -86672.901   -2420.9384 
     210            0    1266.0776     9.014632    9.0146321    17.990104          120   -42537.353   -62038.868   -132268.74     11238.34    26294.703   -9402.7392     9.014632    7.8069004    17.990104   -78948.321   -2421.1633 
     220            0    1262.2018     9.005424    9.0054241    17.971728          120   -34215.246   -54518.939   -124859.19    11642.425    27299.972   -9743.0251     9.005424     7.798926    17.971728   -71197.793   -2421.3728 
     230            0     1258.334     8.996216    8.9962161    17.953352          120   -25842.226   -46908.754   -117372.33    12014.967    28247.758   -10052.426     8.996216    7.7909517    17.953352   -63374.438   -2421.5622 
     240            0    1254.4741     8.987008    8.9870081    17.934976          120    -17534.89   -39315.219   -109965.84    12346.372     29122.82   -10323.665     8.987008    7.7829773    17.934976   -55605.316   -2421.7444 
     250            0    1250.6221       8.9778    8.9778001      17.9166          120   -9412.5501   -31844.591   -102605.81    12625.791    29904.741   -10545.665       8.9778     7.775003      17.9166   -47954.316   -2421.9327 
     260            0    1246.7779     8.968592    8.9685921    17.898224          120   -1802.3301   -24810.009   -97192.694    12841.682     30573.09   -10707.552     8.968592    7.7670286    17.898224   -41268.344   -2422.3965 
     270            0    1242.9417     8.959384    8.9593841    17.879848          120     6212.715   -17266.165   -90072.605    12971.832    31085.649   -10787.167     8.959384    7.7590542    17.879848   -33708.685   -2422.5534 
     280            0    1239.1133     8.950176    8.9501761    17.861472          120     13963.04   -9828.7256   -83182.025    12971.757    31364.314   -10742.953     8.950176    7.7510799    17.861472   -26349.237   -2422.7073 
     290            0    1235.2929     8.940968    8.9409681    17.843096          120    21166.796   -2700.8567   -76750.434    12774.392    31289.734   -10511.645     8.940968    7.7431055    17.843096   -19428.165   -2422.8746 
     300            0    1231.4802      8.93176    8.9317601     17.82472          120    27489.015    3924.8773   -71142.939    12261.154    30647.268   -9978.9924      8.93176    7.7351311     17.82472   -13243.015   -2423.0688 
     310            0    1227.6754     8.922552    8.9225521    17.806344          120    32328.684    9701.0108   -66701.771    11217.134    29055.585   -8941.2582     8.922552    7.7271568    17.806344   -8224.0255   -2423.2987 
     320            0    1223.8785     8.913344    8.9133441    17.787968          120    34912.352    14154.499   -64297.205    9394.2555    26066.943   -7162.2973     8.913344    7.7191824    17.787968   -5076.7845   -2423.5823 
     330            0    1220.0894     8.904136    8.9041361    17.769592          120    35672.843    17589.731   -63374.527    6939.3705    21903.753   -4788.0533     8.904136    7.7112081    17.769592   -3370.6512   -2423.8647 
     340            0    1216.3082     8.894928    8.8949281    17.751216          120    35657.126    20590.585   -62821.596    4357.4349    17346.613   -2312.7562     8.894928    7.7032337    17.751216   -2191.2947   -2424.1359 
     350            0    1212.5347      8.88572    8.8857201     17.73284          120    35292.595    23802.203   -62342.444     1805.154    12325.826    71.646784      8.88572    7.6952593     17.73284   -1082.5488   -2424.3437 
     360            0    1208.7691     8.876512    8.8765121    17.714464          120    33227.477     27511.37   -61022.198    -60.66965    5907.9985    1484.5381     8.876512     7.687285    17.714464   -94.450487   -2424.6967 
     370            0    1208.0169    8.8746704    8.8746705    17.710789          120    29690.908    27343.052   -59644.015    3.8563681    2976.6022    1062.0986    8.8746704    7.6856901    17.710789   -870.01788   -2425.0995 
     380            0     1207.265    8.8728288    8.8728289    17.707114          120    28676.441    27334.719   -56608.736    125.95712    2113.2689    826.50195    8.8728288    7.6840952    17.707114   -199.19197   -2425.4268 
     390            0     1207.265    8.8728288    8.8728289    17.707114          120    26692.694    25739.973   -55371.274    86.769918    1672.0476    827.09755    8.8728288    7.6840952    17.707114   -979.53563   -2425.6723 
     400            0    1206.5134    8.8709872    8.8709873    17.703438          120    24498.997    23722.118   -49727.871    139.67364    1379.5582    747.78349    8.8709872    7.6825004    17.703438     -502.252   -2426.2531 
     410            0    1206.5134    8.8709872    8.8709873    17.703438          120    23468.994    22626.218   -48517.201    111.93007    1368.1163    782.91761    8.8709872    7.6825004    17.703438    -807.3297   -2426.4111 
     420            0    1205.7622    8.8691456    8.8691457    17.699763          120    21212.104    19975.092   -41082.583     164.1125    1551.5232    767.42325    8.8691456    7.6809055    17.699763    34.871256   -2427.0572 
     430            0    1205.7622    8.8691456    8.8691457    17.699763          120    19397.653    18164.611   -38605.772    133.66191    1455.9373    800.57885    8.8691456    7.6809055    17.699763   -347.83576   -2427.3225 
     440            0    1205.7622    8.8691456    8.8691457    17.699763          120    18726.268    17484.051   -37597.427    122.83893    1432.6104    811.93906    8.8691456    7.6809055    17.699763   -462.36948    -2427.424 
     450            0    1205.7622    8.8691456    8.8691457    17.699763          120    18121.147    16871.445   -36651.841     116.4318    1412.1701    820.05772    8.8691456    7.6809055    17.699763   -553.08266   -2427.5163 
     460            0    1205.7622    8.8691456    8.8691457    17.699763          120    17532.673    16270.614    -35697.81     109.6847    1394.6752     829.0834    8.8691456    7.6809055    17.699763    -631.5075   -2427.6074 
     470            0    1205.7622    8.8691456    8.8691457    17.699763          120    16926.279    15652.977   -34687.047    102.98607    1378.4467    837.61741    8.8691456    7.6809055    17.699763   -702.59681   -2427.7016 
     480            0    1205.7622    8.8691456    8.8691457    17.699763          120    16283.761    14994.498   -33574.256    96.884978    1365.0069    846.49125    8.8691456    7.6809055    17.699763   -765.33241   -2427.8026 
     490            0    1205.7622    8.8691456    8.8691457    17.699763          120     15588.37    14280.802   -32313.284    91.207848    1353.2503     851.8494    8.8691456    7.6809055    17.699763    -814.7041    -2427.914 
     500            0    1205.7622    8.8691456    8.8691457    17.699763          120    14840.835    13505.668   -30904.316    87.391811    1344.3166    857.05833    8.8691456    7.6809055    17.699763   -852.60398    -2428.035 
     510            0    1205.7622    8.8691456    8.8691457    17.699763          120    14087.793    12729.465   -29398.741    85.980803    1338.1533    861.80936    8.8691456    7.6809055    17.699763   -860.49406   -2428.1594 
     520            0    1205.7622    8.8691456    8.8691457    17.699763          120    13408.505    12027.931   -27956.559     88.31557    1337.9472     864.2196    8.8691456    7.6809055    17.699763   -840.04113   -2428.2744 
     530            0    1205.7622    8.8691456    8.8691457    17.699763          120    12844.812    11439.841   -26686.114    89.649139    1340.3037    863.27091    8.8691456    7.6809055    17.699763   -800.48721   -2428.3724 
     540            0    1205.7622    8.8691456    8.8691457    17.699763          120    12371.964    10950.832   -25584.904     94.43329    1345.3067    861.53232    8.8691456    7.6809055    17.699763   -754.03602   -2428.4554 
     550            0    1205.7622    8.8691456    8.8691457    17.699763          120    11973.005    10532.048   -24614.124    97.892092    1351.7702    859.23862    8.8691456    7.6809055    17.699763   -703.02351    -2428.527 
     560            0    1205.7622    8.8691456    8.8691457    17.699763          120     11625.95    10168.751   -23736.234    101.60549    1359.3037    856.04245    8.8691456    7.6809055    17.699763   -647.17783   -2428.5902 
     570            0    1205.7622    8.8691456    8.8691457    17.699763          120    11312.597    9839.7893   -22919.978    105.97303    1367.4611    852.98111    8.8691456    7.6809055    17.699763   -589.19722   -2428.6479 
     580            0    1205.7622    8.8691456    8.8691457    17.699763          120     11022.31     9534.108   -22141.166    110.13999    1376.2644    849.07917    8.8691456    7.6809055    17.699763   -528.24926   -2428.7023 
     590            0    1205.7622    8.8691456    8.8691457    17.699763          120    10744.719    9241.6604   -21376.025     114.9662    1385.9523    845.14092    8.8691456    7.6809055    17.699763   -463.21536   -2428.7545 
     600            0    1205.7622    8.8691456    8.8691457    17.699763          120    10472.109    8952.8941   -20599.838    119.32496    1396.3081    840.40267    8.8691456    7.6809055    17.699763   -391.61144   -2428.8068 
     610            0    1205.7622    8.8691456    8.8691457    17.699763          120    10190.671    8654.2106   -19774.637    125.30735    1408.4653    835.19929    8.8691456    7.6809055    17.699763    -309.9186   -2428.8614 
     620            0    1205.7622    8.8691456    8.8691457    17.699763          120    9874.4462    8317.5566   -18816.182    132.73223    1423.9867    828.71063    8.8691456    7.6809055    17.699763   -208.05982   -2428.9237 
     630            0    1205.7622    8.8691456    8.8691457    17.699763          120    9371.4787     7778.187   -17210.103    146.69994    1453.1109    816.43885    8.8691456    7.6809055    17.699763   -20.145707   -2429.0252 
     640            0    1205.7622    8.8691456    8.8691457    17.699763          120    8626.2019    6977.0549   -14665.294    171.53213    1505.8722    794.03582    8.8691456    7.6809055    17.699763     312.6543   -2429.1788 
     650            0    1205.7622    8.8691456    8.8691457    17.699763          120    8416.6317    6749.0606   -13885.032    180.08503    1524.2178    786.12541    8.8691456    7.6809055    17.699763    426.88679   -2429.2242 
     660            0    1205.7622    8.8691456    8.8691457    17.699763          120    8232.4201    6548.2011   -13175.091    188.04942    1541.4487    777.40721    8.8691456    7.6809055    17.699763    535.17678   -2429.2646 
     670            0    1205.7622    8.8691456    8.8691457    17.699763          120    8054.5837    6352.8101   -12468.492     196.6377     1559.486    768.74797    8.8691456    7.6809055    17.699763    646.30058   -2429.3043 
     680            0    1205.7622    8.8691456    8.8691457    17.699763          120     7860.496    6140.0294   -11682.345    205.77092    1579.9299    759.18614    8.8691456    7.6809055    17.699763    772.72693   -2429.3478 
     690            0    1205.7622    8.8691456    8.8691457    17.699763          120    7577.0716    5828.4097   -10481.881    219.59743    1613.4485    744.84674    8.8691456    7.6809055    17.699763    974.53349   -2429.4127 
     693            0    1206.1378    8.8700664    8.8700665    17.701601          120    6342.0185    4696.0763     -10872.5    152.89558    1457.5908    807.52685    8.8700664    7.6817029    17.701601    55.198259   -2429.4494 
Loop time of 3.05813 on 1 procs for 693 steps with 119 atoms

99.8% CPU use with 1 MPI tasks x 1 OpenMP threads

Minimization stats:
  Stopping criterion = energy tolerance
  Energy initial, next-to-last, final = 
        -2412.48965471     -2429.44711222     -2429.44947542
  Force two-norm initial, final = 574.254 5.99819
  Force max component initial, final = 574.063 0.774933
  Final line search alpha, max atom move = 3.96719e-05 3.07431e-05
  Iterations, force evaluations = 693 693

MPI task timing breakdown:
Section |  min time  |  avg time  |  max time  |%varavg| %total
---------------------------------------------------------------
Pair    | 2.5559     | 2.5559     | 2.5559     |   0.0 | 83.58
Bond    | 0.00038314 | 0.00038314 | 0.00038314 |   0.0 |  0.01
Kspace  | 0.1437     | 0.1437     | 0.1437     |   0.0 |  4.70
Neigh   | 0.019386   | 0.019386   | 0.019386   |   0.0 |  0.63
Comm    | 0.025971   | 0.025971   | 0.025971   |   0.0 |  0.85
Output  | 0.12475    | 0.12475    | 0.12475    |   0.0 |  4.08
Modify  | 0          | 0          | 0          |   0.0 |  0.00
Other   |            | 0.1881     |            |       |  6.15

Nlocal:    119 ave 119 max 119 min
Histogram: 1 0 0 0 0 0 0 0 0 0
Nghost:    7806 ave 7806 max 7806 min
Histogram: 1 0 0 0 0 0 0 0 0 0
Neighs:    87702 ave 87702 max 87702 min
Histogram: 1 0 0 0 0 0 0 0 0 0

Total # of neighbors = 87702
Ave neighs/atom = 736.992
Ave special neighs/atom = 0.0504202
Neighbor list builds = 6
Dangerous builds = 0
undump MIN

reset_timestep	0
timestep 0.0001

velocity        all create 300.0 87287 loop geom
fix		1 all npt temp 300.0 30.0 .1 iso 1.013 1.013 1.0

dump TRJ all custom 1 dump.lammpstrj id type element x y z ix iy iz
dump_modify TRJ sort 1 element Be Al Si O H O

run 		10000
PPPM initialization ...
  using 12-bit tables for long-range coulomb (../kspace.cpp:321)
  G vector (1/distance) = 0.212301
  grid = 8 10 10
  stencil order = 5
  estimated absolute RMS force accuracy = 0.00041044
  estimated relative force accuracy = 2.85035e-05
  using double precision FFTs
  3d grid and FFT values/proc = 2925 800
Per MPI rank memory allocation (min/avg/max) = 9.394 | 9.394 | 9.394 Mbytes
Step Temp Volume Cella Cellb Cellc CellGamma Pxx Pyy Pzz Pxy Pxz Pyz Lx Ly Lz Press PotEng 
       0          300    1206.1378    8.8700664    8.8700665    17.701601          120    10181.384    8731.2771   -6534.3073    338.69621     1466.492    539.15551    8.8700664    7.6817029    17.701601    4126.1179   -2429.4472 
      10    295.76588    1206.1398    8.8700714    8.8700714    17.701611          120    11539.926     6631.037   -8252.3248    1175.2071    2004.9957    2017.7655    8.8700714    7.6817072    17.701611    3306.2126   -2429.3821 
      20    283.34952    1206.1455    8.8700852    8.8700853    17.701638          120    9981.0193    9408.6025   -5608.7353    1050.2443    680.86216   -2063.4223    8.8700852    7.6817192    17.701638    4593.6288   -2429.1928 
      30    263.95602    1206.1551    8.8701088    8.8701088    17.701685          120    11078.403    8691.8227   -2486.3333    178.13931    2569.2463   -3160.8732    8.8701088    7.6817396    17.701685    5761.2973   -2428.8971 
      40    239.88863    1206.1692    8.8701434    8.8701435    17.701755          120    13049.584    6874.0729   -3866.4874     1542.828    2977.0103   -862.41823    8.8701434    7.6817696    17.701755    5352.3898     -2428.53 
      50    215.86201    1206.1885    8.8701908    8.8701909    17.701849          120    11834.793    9464.9521   -3049.8817    2920.2345     459.7729   -3003.6416    8.8701908    7.6818107    17.701849    6083.2878   -2428.1634 
      60    194.59657    1206.2137    8.8702525    8.8702526    17.701972          120    13070.322    9430.5078    2671.2939    1560.5076     3075.681   -5043.2401    8.8702525    7.6818641    17.701972    8390.7081   -2427.8359 
      70    178.08744    1206.2458    8.8703311    8.8703311    17.702129          120    14711.742    7267.2072    4781.1705    1457.6142     4851.027   -4025.3287    8.8703311    7.6819321    17.702129    8920.0398   -2427.5829 
      80    169.45017    1206.2855    8.8704285    8.8704285    17.702323          120    12446.034    9282.6848    3749.8424    3806.7873    920.15644   -4864.5841    8.8704285    7.6820165    17.702323    8492.8537   -2427.4502 
      90    168.02786    1206.3335    8.8705461    8.8705461    17.702558          120    13586.963    9621.2639    7664.6622    4175.9469    2096.9075    -5943.581    8.8705461    7.6821183    17.702558    10290.963   -2427.4248 
     100     172.5389    1206.3905    8.8706859    8.8706859    17.702837          120    15698.236    6905.3856    13081.381    2733.1018    5595.8971   -6222.4095    8.8706859    7.6822394    17.702837    11895.001   -2427.4913 
     110    182.89194    1206.4574    8.8708498    8.8708499    17.703164          120    11977.154    7947.7185    13564.962    3723.4202    2146.9821   -7450.9535    8.8708498    7.6823814    17.703164    11163.278   -2427.6448 
     120    194.85095    1206.5346     8.871039    8.8710391    17.703542          120    11767.654    8488.0035    14787.882    6078.1764    895.66047   -6864.1762     8.871039    7.6825452    17.703542     11681.18   -2427.8224 
     130    206.67295    1206.6227    8.8712549    8.8712549    17.703973          120    15323.968    6025.6804    20603.847     5561.787    4575.5208   -6684.8783    8.8712549    7.6827322    17.703973    13984.498   -2428.0027 
     140      217.194    1206.7226    8.8714997    8.8714998    17.704461          120    11885.338    6897.8689    24261.974    4111.4578    3199.6492   -9095.4822    8.8714997    7.6829442    17.704461    14348.394   -2428.1595 
     150    223.74291     1206.835    8.8717752    8.8717753    17.705011          120    9533.4957    7099.8075    25598.165    5968.7111    998.40353   -8093.1153    8.8717752    7.6831828    17.705011    14077.156   -2428.2579 
     160    226.48033    1206.9606     8.872083    8.8720831    17.705625          120    13460.977    4828.9171    30270.485    7882.0213    3518.0395   -5978.2178     8.872083    7.6834494    17.705625    16186.793   -2428.2981 
     170    226.99934    1207.1006     8.872426    8.8724261     17.70631          120     12124.26    6921.6502    35265.794    5894.9394    3805.0261   -8278.6315     8.872426    7.6837464     17.70631    18103.902   -2428.3024 
     180    224.58963    1207.2561    8.8728069    8.8728069     17.70707          120    8811.2921    7119.5388    38289.225    4851.2707    2372.5115   -8709.8016    8.8728069    7.6840762     17.70707    18073.352   -2428.2617 
     190    221.87539    1207.4279    8.8732277    8.8732278     17.70791          120    11110.912    3610.1467    42580.897    7547.8258    3936.5294   -5845.0426    8.8732277    7.6844407     17.70791    19100.652   -2428.2183 
     200    220.62304    1207.6172    8.8736915    8.8736916    17.708835          120    11104.498     6570.093    46981.038    7783.8132    4635.4506    -6006.393    8.8736915    7.6848424    17.708835    21551.876   -2428.1983 
     210    220.27406    1207.8252    8.8742011    8.8742011    17.709852          120    8830.6249    7949.4182    50546.669    4801.9863    4169.1697   -7560.1989    8.8742011    7.6852836    17.709852    22442.237   -2428.1924 
     220    222.27846    1208.0529    8.8747586    8.8747587    17.710965          120    9533.9586    2678.5466    54885.986    5239.0994    5357.1399   -6832.2748    8.8747586    7.6857665    17.710965    22366.164   -2428.2243 
     230    226.17015    1208.3012    8.8753665    8.8753666    17.712178          120    8683.8575    4545.6723    58845.198    7477.9679    5665.0233   -5236.1857    8.8753665    7.6862929    17.712178    24024.909   -2428.2743 
     240    229.80225    1208.5709     8.876027     8.876027    17.713496          120    7742.3332      7499.26    62418.091    5819.5059    5589.8044   -5553.7497     8.876027    7.6868649    17.713496    25886.561    -2428.328 
     250    232.84386    1208.8631    8.8767422    8.8767423    17.714923          120    9122.4147    2004.3201    66302.828    3781.1766    6651.7739    -7629.545    8.8767422    7.6874843    17.714923    25809.854    -2428.373 
     260    233.56524    1209.1786    8.8775142    8.8775143    17.716464          120    7016.5819    1571.0143    69700.443    4899.2883    6066.9065   -7041.5843    8.8775142    7.6881529    17.716464    26096.013   -2428.3822 
     270    229.98755    1209.5179    8.8783447    8.8783447    17.718121          120    5635.2527    4957.9058    73942.478    5661.4204    5783.0747   -5151.7213    8.8783447    7.6888721    17.718121    28178.545   -2428.3347 
     280    223.07559    1209.8821    8.8792356    8.8792357    17.719899          120    8717.3413    1004.7433    77840.912    4112.8926    7404.0601   -7492.0107    8.8792356    7.6896437    17.719899    29187.666   -2428.2226 
     290    211.84383     1210.272    8.8801893    8.8801893    17.721803          120    7305.9843   -961.68876    79593.352    2595.2459    5989.0163    -9386.313    8.8801893    7.6904696    17.721803    28645.882   -2428.0565 
     300    197.68694    1210.6881     8.881207    8.8812071    17.723834          120    4501.5745    1674.0468    83376.726    3196.3172    4639.0813   -7250.8791     8.881207     7.691351    17.723834    29850.783   -2427.8412 
     310    182.95423    1211.1313    8.8822905    8.8822906    17.725996          120    7557.8118   -529.07595    88200.668     4186.514    7485.4553   -7540.3858    8.8822905    7.6922893    17.725996    31743.135   -2427.6203 
     320    168.77701    1211.6023    8.8834417    8.8834418    17.728293          120    7862.5612   -2459.7619    88413.316    2042.9259    6699.5739    -10075.41    8.8834417    7.6932863    17.728293    31272.038   -2427.4179 
     330    157.31738    1212.1015    8.8846616    8.8846616    17.730728          120    4695.3367   -1018.9908     88603.05    153.17594    3725.8181   -9908.9775    8.8846616    7.6943427    17.730728    30759.799   -2427.2486 
     340    151.15715     1212.629    8.8859504    8.8859505      17.7333          120    6036.5834   -2124.6171    92879.583    2330.5256    7109.0537   -9005.0911    8.8859504    7.6954589      17.7333     32263.85   -2427.1609 
     350    149.59481    1213.1854    8.8873091    8.8873092    17.736011          120    6582.6297   -2920.7519     93661.66    2182.9186     8413.924   -9710.2763    8.8873091    7.6966355    17.736011    32441.179    -2427.144 
     360    153.48949    1213.7705    8.8887376    8.8887377    17.738862          120    4143.5699   -2126.6843    89869.149   -1363.4034    4770.4594    -11227.68    8.8887376    7.6978727    17.738862    30628.678   -2427.2107 
     370    162.51638    1214.3839    8.8902348    8.8902349     17.74185          120    4581.0566   -3181.4894    90384.238     -429.328    7296.3541   -11763.318    8.8902348    7.6991693     17.74185    30594.602   -2427.3493 
     380    173.42226    1215.0254    8.8917999       8.8918    17.744973          120     4142.497   -2686.7373    92487.949    1423.7439    10359.405   -10549.643    8.8917999    7.7005247    17.744973    31314.569   -2427.5152 
     390    185.93765    1215.6946    8.8934322    8.8934322    17.748231          120    1707.1081   -1239.5969    88396.633   -1380.5388     7442.973   -11459.579    8.8934322    7.7019383    17.748231    29621.381   -2427.7079 
     400    197.73833    1216.3909    8.8951296    8.8951297    17.751618          120    2531.9162   -2871.4992    84538.075   -1951.9704    8712.8791   -14372.018    8.8951296    7.7034083    17.751618    28066.164   -2427.8878 
     410    206.60143    1217.1135    8.8968906    8.8968907    17.755133          120     2410.663   -2185.7653    85642.296    18.495469    12041.811   -13549.708    8.8968906    7.7049334    17.755133    28622.398   -2428.0281 
     420    212.77956    1217.8619     8.898714    8.8987141    17.758772          120   -714.85732    906.88228    83901.878    -1269.582    9973.4438   -12308.976     8.898714    7.7065125    17.758772    28031.301   -2428.1282 
     430    216.14253    1218.6356    8.9005979     8.900598    17.762531          120    -493.0789   -594.11085    78828.798   -1672.5898    10696.307   -15578.406    8.9005979     7.708144    17.762531    25913.869   -2428.1838 
     440    216.12461    1219.4336    8.9025404    8.9025405    17.766408          120     988.2671   -1434.7962    76764.134   -396.95895    13586.228   -17206.004    8.9025404    7.7098262    17.766408    25439.202     -2428.17 
     450    215.80776    1220.2554    8.9045398    8.9045399    17.770398          120   -1289.8158     2556.281    75398.294   -1382.7204    11908.515   -15187.734    8.9045398    7.7115578    17.770398     25554.92   -2428.1745 
     460    215.44088    1221.1002    8.9065942    8.9065942    17.774498          120   -3107.6661    2616.1423    71779.484   -570.81195    12242.485   -16229.602    8.9065942    7.7133369    17.774498    23762.653   -2428.1694 
     470    215.84559    1221.9669    8.9087009     8.908701    17.778702          120   -1876.1214   -173.09482    67030.271    954.86538    14915.825   -19453.091    8.9087009    7.7151614    17.778702    21660.352   -2428.1714 
     480    219.46659    1222.8544    8.9108572    8.9108573    17.783005          120   -1696.7463    2213.1487    62633.659   -839.19513    13865.173   -19579.792    8.9108572    7.7170288    17.783005     21050.02   -2428.2307 
     490    225.00357    1223.7614    8.9130597    8.9130598    17.787401          120   -4293.6667    4043.3877    59645.535    420.87933    14100.728    -18448.33    8.9130597    7.7189362    17.787401    19798.419   -2428.3152 
     500    232.19313    1224.6863    8.9153046    8.9153047    17.791881          120   -5852.8572    1166.0845    54658.414    3211.0766    16239.137   -20352.017    8.9153046    7.7208803    17.791881    16657.214   -2428.4251 
     510    241.22244    1225.6273    8.9175874    8.9175875    17.796436          120   -4570.9097     727.2472    46982.237    838.80989    15829.078   -23285.041    8.9175874    7.7228573    17.796436    14379.525   -2428.5562 
     520    249.58059    1226.5824    8.9199032    8.9199032    17.801058          120   -5095.7221    2489.1513    42838.395    1132.6249    16758.098   -22706.699    8.9199032    7.7248628    17.801058    13410.608   -2428.6745 
     530    256.45786    1227.5496    8.9222472    8.9222472    17.805736          120   -8525.4786    1441.3223    39114.232    4869.3228    18327.169   -21821.243    8.9222472    7.7268928    17.805736    10676.692   -2428.7685 
     540    262.37681    1228.5269    8.9246143    8.9246144     17.81046          120   -9263.9549   -1.2438573    30582.493    2847.7898    17280.281     -24974.5    8.9246143    7.7289428     17.81046    7105.7648   -2428.8504 
     550    265.26001    1229.5119    8.9269989     8.926999    17.815218          120   -7524.4639   -122.21096    25011.179    1596.9727    18751.956   -26716.443    8.9269989    7.7310079    17.815218    5788.1681   -2428.8691 
     560    266.74383    1230.5026    8.9293959     8.929396    17.820002          120   -9205.8634   -270.61827    22595.963    5180.8126    20949.187   -24712.036    8.9293959    7.7330838    17.820002    4373.1605   -2428.8704 
     570    267.95643    1231.4971    8.9318008    8.9318009    17.824801          120   -12705.061    18.722392    14979.795    4257.7503    18630.292   -25605.015    8.9318008    7.7351665    17.824801    764.48552   -2428.8779 
     580    268.68258    1232.4931     8.934208    8.9342081    17.829605          120   -11948.541   -1046.2758    8335.2642    2084.0001    18875.477   -28488.952     8.934208    7.7372512    17.829605   -1553.1842   -2428.8664 
     590    271.14045    1233.4885    8.9366127    8.9366128    17.834404          120   -10074.493   -2802.5696    6509.7243     4224.168     22457.99   -28015.704    8.9366127    7.7393337    17.834404   -2122.4462   -2428.8883 
     600     276.3254    1234.4818    8.9390108    8.9390109     17.83919          120   -13353.483   -785.79927    479.04241    4135.2578    20362.514   -27161.789    8.9390108    7.7414105     17.83919   -4553.4134    -2428.947 
     610    282.99712    1235.4709    8.9413975    8.9413976    17.843953          120   -15949.981   -341.96282   -6722.8351    2675.2093    18117.725   -28482.708    8.9413975    7.7434775    17.843953    -7671.593   -2429.0216 
     620    292.53396    1236.4539    8.9437683    8.9437684    17.848684          120   -12767.716   -3852.1523   -8647.9151    3290.9045    21675.024   -29731.359    8.9437683    7.7455306    17.848684   -8422.5944   -2429.1402 
     630    303.41778    1237.4293    8.9461195    8.9461196    17.853377          120   -12847.624    -2107.318   -12776.232    2503.7257    21613.545   -29756.797    8.9461195    7.7475669    17.853377   -9243.7245   -2429.2765 
     640    313.37544    1238.3957    8.9484477    8.9484478    17.858023          120   -17081.687     521.7497    -19467.36    2437.6601    18164.779   -29068.389    8.9484477    7.7495831    17.858023   -12009.099   -2429.4094 
     650      322.633    1239.3513    8.9507489     8.950749    17.862615          120   -15723.449   -3062.7238   -21727.032    3399.7752    19887.301   -29793.416    8.9507489     7.751576    17.862615   -13504.402   -2429.5246 
     660    328.67218    1240.2951    8.9530204    8.9530205    17.867148          120   -13201.922   -2219.8663    -24235.18     1104.402     21447.16   -31883.715    8.9530204    7.7535432    17.867148   -13218.989   -2429.5853 
     670    330.50189    1241.2262    8.9552601    8.9552602    17.871618          120   -15432.532    1643.9758   -29099.459    955.57009    19187.498    -31429.59    8.9552601    7.7554828    17.871618   -14296.005   -2429.5817 
     680    328.91666    1242.1436    8.9574659     8.957466     17.87602          120   -15634.028   -1263.3094   -31141.545    3733.2928    19459.748   -30241.563    8.9574659    7.7573931     17.87602   -16012.961   -2429.5175 
     690     323.4645    1243.0468    8.9596364    8.9596365    17.880352          120   -13423.431   -820.31444   -32859.398    1976.4392    20718.727   -32443.636    8.9596364    7.7592728    17.880352   -15701.048   -2429.4028 
     700     314.8671    1243.9353    8.9617707    8.9617708    17.884611          120   -13189.044    3928.9971   -36055.618    73.446351    20217.883   -34218.657    8.9617707    7.7611212    17.884611   -15105.222   -2429.2525 
     710    306.23597    1244.8089    8.9638682    8.9638683    17.888797          120   -12602.896    1264.3576    -37415.87    3061.6166    20905.562   -32854.474    8.9638682    7.7629377    17.888797    -16251.47   -2429.0932 
     720    297.20838    1245.6675    8.9659285    8.9659286    17.892909          120    -11958.88    836.54026   -39421.025    4162.8294    21303.805   -32880.648    8.9659285    7.7647219    17.892909   -16847.788   -2428.9309 
     730    290.31914    1246.5106     8.967951    8.9679511    17.896945          120   -11419.544    6306.6495   -42231.697    2050.5684     21323.78   -35696.776     8.967951    7.7664735    17.896945   -15781.531   -2428.8107 
     740     287.2593    1247.3384    8.9699357    8.9699358    17.900906          120   -9181.4178    4526.9362   -42946.817    2649.5323    23376.527   -36590.935    8.9699357    7.7681923    17.900906     -15867.1   -2428.7525 
     750    287.06378    1248.1506    8.9718822    8.9718823     17.90479          120   -8967.2062    2800.9012    -45603.78    5485.1698    23538.155    -34957.99    8.9718822     7.769878     17.90479   -17256.695   -2428.7315 
     760    290.91062     1248.947    8.9737899      8.97379    17.908597          120   -9627.3897    7854.2791   -49491.189    5768.1678    22826.203   -35905.996    8.9737899    7.7715301    17.908597     -17088.1   -2428.7844 
     770    298.38667    1249.7272    8.9756582    8.9756583    17.912326          120   -6642.1373    7474.6362   -49255.409    4345.2366    25838.311   -38685.083    8.9756582    7.7731481    17.912326    -16140.97   -2428.8732 
     780    307.24854    1250.4912    8.9774869     8.977487    17.915975          120   -5707.9911    5470.4959   -51375.578    5610.9731    26749.205   -38129.795    8.9774869    7.7747318    17.915975   -17204.358   -2428.9996 
     790      317.378    1251.2388    8.9792756    8.9792756    17.919545          120   -7133.3465    9495.4438   -56592.393    8078.1662     24727.83   -36815.214    8.9792756    7.7762808    17.919545   -18076.765   -2429.1199 
     800    327.91476    1251.9697    8.9810235    8.9810236    17.923033          120   -4403.0062    9732.0447   -55692.006    7394.5695    27718.182   -38402.132    8.9810235    7.7777946    17.923033   -16787.656   -2429.2657 
     810    336.25377     1252.684    8.9827312    8.9827313    17.926441          120    -2380.706    8234.7039   -54768.946    6278.2009    30098.141   -39931.909    8.9827312    7.7792735    17.926441   -16304.983   -2429.3724 
     820    343.89024     1253.382    8.9843993    8.9843993     17.92977          120    -3976.352     11590.17    -60115.33    7916.2881    27383.087   -39279.332    8.9843993    7.7807181     17.92977   -17500.504   -2429.4861 
     830    349.87009    1254.0636    8.9860277    8.9860278     17.93302          120    -1832.069    12133.963    -60161.36    9316.7017     29006.91   -38067.657    8.9860277    7.7821284     17.93302   -16619.822   -2429.5511 
     840    353.97579    1254.7295    8.9876179    8.9876179    17.936193          120    1000.7182    11126.851   -55932.344    8330.7251    32708.011   -39254.047    8.9876179    7.7835055    17.936193   -14601.592   -2429.5842 
     850    358.19643    1255.3804    8.9891717    8.9891718    17.939294          120   -18.750047    13860.288   -58382.487    7457.3436     31005.82   -41854.979    8.9891717    7.7848511    17.939294   -14846.983   -2429.6348 
     860    362.52109    1256.0168    8.9906905    8.9906906    17.942325          120    1006.5135    14347.808   -59980.742    8976.7694    31158.753   -40181.525    8.9906905    7.7861665    17.942325   -14875.473   -2429.6942 
     870    367.26629    1256.6395     8.992176     8.992176    17.945289          120    3788.8509    14204.422    -55886.04    10122.669    34627.304   -38470.131     8.992176    7.7874529    17.945289   -12630.922   -2429.7561 
     880    374.44283    1257.2494    8.9936306    8.9936307    17.948192          120     3779.837    16564.482   -54683.836    8500.1765    34659.134   -42804.604    8.9936306    7.7887126    17.948192   -11446.506   -2429.8533 
     890    382.97671    1257.8475    8.9950565    8.9950566    17.951038          120    4176.8374    15993.374   -55459.822    8012.4722    34686.753   -43763.337    8.9950565    7.7899475    17.951038   -11763.203   -2429.9653 
     900    392.84861    1258.4346    8.9964557    8.9964557     17.95383          120    6150.1254    16526.117    -53820.24    9877.2304    36940.321   -40023.218    8.9964557    7.7911592     17.95383   -10381.333   -2430.0959 
     910    404.65227    1259.0117    8.9978309    8.9978309    17.956575          120    6778.7861    20475.206   -51600.014     9512.062    37603.088   -42973.965    8.9978309    7.7923502    17.956575   -8115.3406   -2430.2415 
     920    415.86542    1259.5802    8.9991848    8.9991848    17.959277          120    7275.3806    18941.397    -49156.26    7955.2848    38512.313   -46172.107    8.9991848    7.7935227    17.959277    -7646.494   -2430.3985 
     930    426.28105    1260.1408    9.0005198    9.0005199    17.961941          120    8267.2759     17653.01   -47783.923    8636.6537    40009.572   -43265.671    9.0005198    7.7946789    17.961941   -7287.8791   -2430.5566 
     940    435.26954    1260.6949    9.0018387    9.0018388    17.964573          120    8766.2501    23440.087   -47527.804    9120.9774    40413.431   -44035.613    9.0018387    7.7958211    17.964573   -5107.1557   -2430.6937 
     950    440.67209    1261.2436    9.0031446    9.0031447    17.967179          120    9416.7991    24089.324   -43128.283    8348.7353    41771.398   -46667.338    9.0031446     7.796952    17.967179   -3207.3865   -2430.7784 
     960    442.90616    1261.7884    9.0044406    9.0044406    17.969765          120    10144.417    19813.254   -38523.076    8143.1358    43312.339   -45373.641    9.0044406    7.7980744    17.969765    -2855.135   -2430.8043 
     970    442.46017    1262.3305    9.0057299      9.00573    17.972338          120    10394.878    23935.501   -38961.473    8102.8039    43445.112   -46175.933    9.0057299     7.799191    17.972338    -1543.698   -2430.8007 
     980    438.08498    1262.8713    9.0070158    9.0070159    17.974905          120    10848.643    28684.474   -35611.192    7974.5316     44440.55   -46946.744    9.0070158    7.8003046    17.974905    1307.3086   -2430.7082 
     990    432.54943    1263.4125    9.0083023    9.0083023    17.977472          120    11042.004    24619.298   -28197.381    8220.8732    45813.179   -45521.171    9.0083023    7.8014187    17.977472    2487.9736   -2430.6235 
    1000    426.14923    1263.9555    9.0095928    9.0095928    17.980047          120    10972.291    23832.863   -26731.011    8001.4971    46328.848    -48049.47    9.0095928    7.8025363    17.980047    2691.3813   -2430.5143 
    1010    419.12282    1264.5016    9.0108902    9.0108902    17.982637          120    10810.158    29211.185   -25616.339    7495.2102    46969.148   -48704.695    9.0108902    7.8036599    17.982637    4801.6681   -2430.4008 
    1020    413.76877    1265.0521    9.0121975    9.0121975    17.985246          120    10397.361    28879.679   -18972.313    7711.9025    47337.122   -45364.773    9.0121975     7.804792    17.985246    6768.2423   -2430.3183 
    1030    409.61652    1265.6081    9.0135176    9.0135176     17.98788          120    9869.6643    25005.905   -15866.581    8110.2897     48163.73   -48655.442    9.0135176    7.8059353     17.98788    6336.3296   -2430.2542 
    1040    405.96169    1266.1703     9.014852    9.0148521    17.990543          120    9339.5608    26261.679   -15773.355    7755.4509     49050.92    -51425.61     9.014852    7.8070909    17.990543    6609.2951   -2430.2067 
    1050     404.1803    1266.7392    9.0162019     9.016202    17.993237          120     8829.928    28300.564   -11709.908    6998.2923    48174.885   -46780.535    9.0162019      7.80826    17.993237     8473.528    -2430.196 
    1060    402.41431    1267.3154    9.0175689    9.0175689    17.995965          120    8168.5153    26322.572   -9239.3062    7167.8983    48353.242   -48292.152    9.0175689    7.8094438    17.995965    8417.2603   -2430.1701 
    1070    399.35032    1267.8992    9.0189533    9.0189534    17.998728          120    7196.8258    23650.982   -9347.0637    7970.6125    49707.779    -53287.13    9.0189533    7.8106428    17.998728    7166.9146   -2430.1313 
    1080      396.439    1268.4904    9.0203549     9.020355    18.001525          120    7053.8205    23619.992   -6592.4879    7111.6625    47993.142   -49776.213    9.0203549    7.8118566    18.001525    8027.1081   -2430.1026 
    1090    390.98792    1269.0892     9.021774     9.021774    18.004357          120    7216.2918    25014.251   -5857.0125    5778.8956      46799.3   -48587.945     9.021774    7.8130855    18.004357    8791.1767   -2430.0314 
    1100    383.64133    1269.6954    9.0232104    9.0232105    18.007224          120    6236.8669    23001.272   -7309.6111    6714.2813    48025.932   -53439.651    9.0232104    7.8143295    18.007224    7309.5092   -2429.9212 
    1110     375.4984    1270.3088    9.0246632    9.0246633    18.010123          120    6050.0733    19040.486   -4832.4806    7271.0675    46244.784    -52678.86    9.0246632    7.8155877    18.010123    6752.6927   -2429.7982 
    1120    365.82149    1270.9291    9.0261319     9.026132    18.013054          120    7036.0124        20735   -4274.8156    5186.7359    44005.062   -50533.265    9.0261319    7.8168596    18.013054    7832.0656   -2429.6488 
    1130    356.07714    1271.5562    9.0276162    9.0276162    18.016016          120    6566.5582    22661.585   -7880.0864    4402.8443     44630.41   -52968.053    9.0276162     7.818145    18.016016    7116.0189   -2429.5102 
    1140     348.1792    1272.1895    9.0291147    9.0291148    18.019006          120     5953.111    17362.353   -7049.1348    5721.3117    43100.786   -53765.432    9.0291147    7.8194428    18.019006    5422.1098   -2429.3944 
    1150    341.09129    1272.8285    9.0306261    9.0306261    18.022023          120    6391.4283    15955.227   -5746.1949     5007.518    40705.882   -53397.608    9.0306261    7.8207517    18.022023    5533.4868   -2429.2956 
    1160    336.53182    1273.4726    9.0321491    9.0321492    18.025062          120    5964.9982    20798.512   -9849.7368    2934.2167    40924.782   -54017.356    9.0321491    7.8220707    18.025062    5637.9244   -2429.2282 
    1170    334.62837    1274.1212    9.0336822    9.0336823    18.028122          120    5266.0588    17620.864   -11540.496    2942.4362    39838.329   -53824.361    9.0336822    7.8233984    18.028122    3782.1422   -2429.2098 
    1180    333.39016    1274.7733    9.0352231    9.0352232    18.031197          120    4892.5288    13182.269   -10981.858    3949.2949     37944.91   -55616.902    9.0352231    7.8247328    18.031197    2364.3133   -2429.1942 
    1190    334.33081    1275.4279    9.0367695    9.0367696    18.034283          120    3649.8282    17625.515   -14130.113    3325.5133    38005.832   -57261.396    9.0367695     7.826072    18.034283    2381.7435   -2429.2172 
    1200    335.90723    1276.0841     9.038319     9.038319    18.037375          120    2985.7509    17381.118   -16433.359    1593.5989    37124.801   -55356.581     9.038319    7.8274139    18.037375    1311.1698   -2429.2428 
    1210    337.04973    1276.7407    9.0398688    9.0398689    18.040468          120    2109.4548    12417.065   -17901.253    2123.0929    36027.526   -56797.883    9.0398688    7.8287561    18.040468    -1124.911   -2429.2618 
    1220    339.23655    1277.3963     9.041416    9.0414161    18.043556          120    352.98848    14621.425   -21578.617    4223.6374    36442.914   -60736.308     9.041416     7.830096    18.043556   -2201.4011   -2429.2843 
    1230    341.16943    1278.0496     9.042957    9.0429571    18.046631          120   -475.28144    15376.363   -22731.529    3084.3386    35200.097   -59457.022     9.042957    7.8314306    18.046631   -2610.1494   -2429.3276 
    1240    341.83529    1278.6991    9.0444887    9.0444887    18.049688          120   -2056.3068    11621.887   -24610.961    1409.1401    34622.829   -58801.535    9.0444887     7.832757    18.049688   -5015.1267   -2429.3453 
    1250    343.41926    1279.3432     9.046007    9.0460071    18.052718          120   -4448.9474    11964.045   -30605.975    4304.4648    36345.807   -62810.913     9.046007    7.8340719    18.052718    -7696.959   -2429.3797 
    1260    343.74505    1279.9799    9.0475074    9.0475075    18.055712          120   -4421.0878    11583.299   -32020.958    5528.6053    34927.918   -64295.448    9.0475074    7.8353714    18.055712   -8286.2489   -2429.3853 
    1270    342.84153    1280.6076    9.0489861    9.0489861    18.058663          120   -6055.6356     8901.122   -32063.918    3089.8918    33459.652   -62912.585    9.0489861    7.8366519    18.058663   -9739.4773   -2429.3737 
    1280    342.69205    1281.2244    9.0504388    9.0504389    18.061562          120   -9850.8692    8880.9277   -38529.103    4471.2027    36468.867   -64215.505    9.0504388      7.83791    18.061562   -13166.348   -2429.3761 
    1290    341.82785    1281.8283    9.0518605    9.0518605    18.064399          120   -9356.2876    6956.5214    -42174.55    6744.1543    35889.492    -67087.05    9.0518605    7.8391412    18.064399   -14858.105   -2429.3663 
    1300    341.17463    1282.4172    9.0532465    9.0532466    18.067165          120   -9063.1218    3969.9686   -41185.208    5552.8592    32691.866   -67279.677    9.0532465    7.8403415    18.067165   -15426.121   -2429.3468 
    1310    342.84409    1282.9895    9.0545929     9.054593    18.069852          120   -13689.748    4016.6684   -45421.183     5872.654    35948.082   -66008.881    9.0545929    7.8415076    18.069852   -18364.754   -2429.3755 
    1320     344.9993    1283.5429    9.0558945    9.0558946     18.07245          120   -15342.947    1646.3348   -50210.276     6923.866     37353.35   -67246.322    9.0558945    7.8426348     18.07245   -21302.296   -2429.4143 
    1330    348.23966    1284.0752    9.0571463    9.0571464    18.074948          120   -13288.075   -2231.7425   -50414.345    6314.9192    33268.607   -68754.863    9.0571463    7.8437189    18.074948   -21978.054    -2429.466 
    1340    353.30733    1284.5847    9.0583442    9.0583442    18.077338          120   -15430.635   -2687.2928   -52743.838    7259.6372    35264.533   -67399.434    9.0583442    7.8447563    18.077338   -23620.589   -2429.5479 
    1350    357.46248    1285.0695    9.0594835    9.0594836    18.079612          120   -19699.955   -4370.3256   -56325.708      7419.43    38456.361   -66464.988    9.0594835     7.845743    18.079612   -26798.663   -2429.6081 
    1360     361.7946    1285.5275    9.0605596    9.0605597     18.08176          120   -19426.531   -7941.3338    -57364.71    5978.0981    34974.967   -67410.521    9.0605596    7.8466749     18.08176   -28244.192   -2429.6835 
    1370    366.03326    1285.9571    9.0615687    9.0615688    18.083773          120   -17130.439   -9101.8441   -59699.826    7473.1658    34972.781   -67289.445    9.0615687    7.8475488    18.083773   -28644.036   -2429.7457 
    1380    368.89111    1286.3567    9.0625074    9.0625074    18.085647          120   -20179.657    -10020.16   -62185.194    8203.0536    38105.229   -66143.349    9.0625074    7.8483617    18.085647   -30795.004    -2429.799 
    1390    371.45646    1286.7249    9.0633719     9.063372    18.087372          120   -24370.847   -11996.826   -62467.957    6159.5354    36434.889   -65639.295    9.0633719    7.8491104    18.087372    -32945.21   -2429.8425 
    1400     373.9619    1287.0603    9.0641593    9.0641594    18.088944          120   -21209.631   -13161.602    -65114.91    6879.3129    35491.101   -66003.459    9.0641593    7.8497923    18.088944   -33162.047   -2429.8933 
    1410    375.15583    1287.3618    9.0648671    9.0648672    18.090356          120   -19307.882   -13836.318   -67934.512    7998.9434    36655.501   -66029.271    9.0648671    7.8504053    18.090356   -33692.904   -2429.9102 
    1420    377.20489    1287.6284    9.0654927    9.0654928    18.091605          120   -25437.153   -14420.932   -67540.563    6353.9966    36080.671   -64885.004    9.0654927    7.8509471    18.091605    -35799.55   -2429.9576 
    1430    379.35405    1287.8591     9.066034     9.066034    18.092685          120   -25897.055   -14756.214   -69505.966    6538.6001    36500.516   -64687.155     9.066034    7.8514158    18.092685   -36719.745   -2429.9975 
    1440    381.43485    1288.0529    9.0664889     9.066489    18.093593          120   -20726.956   -15214.133   -72722.773    7324.3913     35872.88   -65488.516    9.0664889    7.8518098    18.093593   -36221.287   -2430.0309 
    1450    385.32491    1288.2094    9.0668561    9.0668561    18.094325          120   -24109.263   -15167.676   -72429.625    5851.7745    34082.928   -64690.195    9.0668561    7.8521278    18.094325   -37235.521   -2430.1153 
    1460    389.40389    1288.3279    9.0671341    9.0671342     18.09488          120   -28120.626   -14585.401   -73944.782    6399.5539    36236.704   -64240.327    9.0671341    7.8523686     18.09488   -38883.603   -2430.1886 
    1470    393.93665    1288.4079    9.0673216    9.0673217    18.095254          120   -24227.258    -14481.31   -76801.489    7468.5534    36492.749   -65053.293    9.0673216    7.8525309    18.095254   -38503.352   -2430.2726 
    1480    399.38212    1288.4488    9.0674177    9.0674177    18.095446          120   -24192.704   -14011.959   -75654.116     5374.454    32630.093   -64570.517    9.0674177    7.8526141    18.095446   -37952.926   -2430.3743 
    1490    404.08448    1288.4507    9.0674221    9.0674221    18.095455          120   -27701.032   -13195.343   -77112.646    5637.8732    34046.656   -64599.613    9.0674221    7.8526179    18.095455    -39336.34   -2430.4632 
    1500     407.8089    1288.4133    9.0673343    9.0673343     18.09528          120   -26591.918   -12447.308   -80402.479    7953.3715    36643.946   -65644.276    9.0673343    7.8525419     18.09528   -39813.902   -2430.5385 
    1510    411.35578    1288.3364    9.0671538    9.0671539     18.09492          120   -25700.985    -11226.54   -77804.385    5968.1689    33035.366    -64518.01    9.0671538    7.8523856     18.09492    -38243.97   -2430.5932 
    1520    412.61387    1288.2204    9.0668818    9.0668818    18.094377          120   -26239.265   -10751.209   -77861.391    4647.8244    31590.127    -64635.88    9.0668818      7.85215    18.094377   -38283.955   -2430.6287 
    1530    413.01863    1288.0656    9.0665186    9.0665187    18.093652          120   -25526.015   -10265.286   -82649.712    7114.4099    34549.848   -66554.219    9.0665186    7.8518355    18.093652   -39480.338   -2430.6685 
    1540    412.63006     1287.872    9.0660645    9.0660645    18.092746          120   -25996.358   -7982.7257   -80736.459    6241.0781     34077.41   -64567.742    9.0660645    7.8514422    18.092746   -38238.514   -2430.6745 
    1550    410.25563    1287.6403    9.0655207    9.0655207     18.09166          120    -24600.06   -7293.4894   -78376.787    3883.8411    31281.735   -63267.119    9.0655207    7.8509713     18.09166   -36756.779   -2430.6539 
    1560    407.63436    1287.3711    9.0648889    9.0648889    18.090399          120   -21921.065   -8101.7884   -82920.959    4904.1965    31486.711   -65926.735    9.0648889    7.8504241    18.090399   -37647.937   -2430.6443 
    1570    404.29713    1287.0647    9.0641697    9.0641698    18.088964          120   -22865.018   -5629.7998   -83880.043    4668.5166    33258.299   -64193.912    9.0641697    7.8498013    18.088964   -37458.287   -2430.6084 
    1580    399.41617    1286.7219    9.0633647    9.0633648    18.087358          120   -21687.731   -3194.5352    -81103.44    3102.3812    32230.314   -60960.639    9.0633647    7.8491042    18.087358   -35328.569   -2430.5624 
    1590    394.73875    1286.3434    9.0624761    9.0624762    18.085584          120   -17479.535   -4486.4199   -82773.668    3053.0781    29649.705   -63367.171    9.0624761    7.8483346    18.085584   -34913.208   -2430.5244 
    1600    389.43507    1285.9301    9.0615054    9.0615054    18.083647          120   -17495.052   -3857.5167   -84902.846    2020.7199    30475.976   -62762.639    9.0615054    7.8474939    18.083647   -35418.472   -2430.4842 
    1610    382.87588    1285.4826    9.0604542    9.0604542    18.081549          120   -17134.205    226.62667   -84348.405    1351.7672    31836.445   -58655.671    9.0604542    7.8465835    18.081549   -33751.994   -2430.4303 
    1620    377.27735    1285.0021    9.0593252    9.0593252    18.079296          120   -13079.565    1211.1434   -83847.153    1978.3153    29215.084   -59936.993    9.0593252    7.8456058    18.079296   -31905.192   -2430.3924 
    1630     371.2341    1284.4898    9.0581209     9.058121    18.076893          120   -11928.929    113.48863   -83451.286    77.183357    27844.304     -60144.1    9.0581209    7.8445629    18.076893   -31755.575   -2430.3109 
    1640    365.18883    1283.9467    9.0568441    9.0568442    18.074345          120   -11883.853    2939.6828   -84107.002   -1104.4754    29331.577   -56532.969    9.0568441    7.8434571    18.074345   -31017.058   -2430.2682 
    1650    361.04956    1283.3741    9.0554977    9.0554978    18.071658          120   -8984.7541    7709.3352   -84335.369    649.34091    28299.254   -57131.689    9.0554977    7.8422911    18.071658   -28536.929   -2430.2299 
    1660    357.81973    1282.7737    9.0540853    9.0540853    18.068839          120   -7694.7129    7840.8435   -81201.962   -514.71308    26482.643   -57179.887    9.0540853    7.8410679    18.068839    -27018.61   -2430.2099 
    1670    355.92223    1282.1469    9.0526103    9.0526103    18.065896          120      -7736.5    7324.8828   -79701.819   -2640.1863    26823.931   -54380.604    9.0526103    7.8397905    18.065896   -26704.479   -2430.2189 
    1680    357.20349    1281.4952    9.0510763    9.0510763    18.062834          120   -6034.5592    12708.453   -81229.157   -879.98583    26635.629   -55333.595    9.0510763    7.8384621    18.062834   -24851.754   -2430.2573 
    1690    359.67455    1280.8202     9.049487     9.049487    18.059663          120     -5010.86    16950.606   -78330.145   -244.64835    26055.097   -54898.129     9.049487    7.8370857    18.059663   -22130.133   -2430.3181 
    1700    364.01229    1280.1238    9.0478465    9.0478466    18.056389          120   -5143.6371    14965.985   -73789.588   -1964.8544    26258.069   -52287.166    9.0478465     7.835665    18.056389   -21322.413   -2430.4328 
    1710    370.38314    1279.4076    9.0461587    9.0461588     18.05302          120   -4435.2769     16717.85   -74171.941   -1370.7846     25853.19   -54387.816    9.0461587    7.8342033     18.05302   -20629.789   -2430.5621 
    1720    376.45629     1278.673    9.0444271    9.0444272    18.049565          120   -3642.2609    23324.261   -73037.867    244.76709    26165.222   -54035.804    9.0444271    7.8327037    18.049565   -17785.289   -2430.6841 
    1730    382.64156     1277.922     9.042656    9.0426561     18.04603          120   -3386.4741    23928.925   -67520.689    114.24986    27161.234   -50544.297     9.042656    7.8311699     18.04603   -15659.413   -2430.8133 
    1740    388.39102    1277.1564    9.0408498    9.0408499    18.042426          120   -3052.0628     22026.09   -65249.488   -182.40347    26640.616   -53584.889    9.0408498    7.8296057    18.042426   -15425.154   -2430.9352 
    1750    392.12457    1276.3777    9.0390121    9.0390121    18.038758          120    -2389.953    26048.184   -64140.065    755.94674    26642.191   -54658.553    9.0390121    7.8280141    18.038758   -13493.945   -2431.0319 
    1760     394.7747    1275.5877    9.0371468    9.0371469    18.035036          120   -1468.6738    29787.435   -59230.692    1932.1918    28141.394   -49788.769    9.0371468    7.8263988    18.035036   -10303.977   -2431.0997 
    1770    396.66139    1274.7885     9.035259    9.0352591    18.031268          120   -860.08142    28480.973   -55771.759    1567.3795    27991.139   -52014.199     9.035259    7.8247639    18.031268   -9383.6226   -2431.1556 
    1780    396.68629    1273.9817    9.0333525    9.0333526    18.027464          120   -268.52714    27959.863   -53551.505    887.67634    27493.272    -55189.98    9.0333525    7.8231129    18.027464   -8620.0564   -2431.1768 
    1790    397.24761    1273.1689    9.0314312    9.0314312    18.023629          120    962.77367    30768.368   -48431.881    1955.3759    29001.412   -50215.634    9.0314312    7.8214489    18.023629   -5566.9131   -2431.2163 
    1800    397.41664    1272.3522    9.0294996    9.0294997    18.019775          120    1853.1087    33048.488   -45272.007    2160.8842     29362.05   -49820.795    9.0294996    7.8197761    18.019775   -3456.8035   -2431.2431 
    1810    397.09323    1271.5333    9.0275621    9.0275621    18.015908          120    2251.1086    31351.723   -43279.441    477.68847      28712.9   -53691.363    9.0275621    7.8180982    18.015908   -3225.5364   -2431.2517 
    1820    397.53688    1270.7137    9.0256218    9.0256219    18.012036          120    3386.1832    29740.273   -37188.426    256.91694    30242.118   -50821.769    9.0256218    7.8164178    18.012036   -1353.9902   -2431.2829 
    1830    397.42275    1269.8949     9.023683    9.0236831    18.008167          120    4590.0651    33730.706   -33497.069    880.12843    31215.125    -48448.41     9.023683    7.8147388    18.008167    1607.9005   -2431.2961 
    1840    396.52325     1269.079    9.0217498    9.0217499    18.004309          120    4972.5599    35216.026   -32983.228   -287.55626    30516.967   -50568.386    9.0217498    7.8130646    18.004309    2401.7859   -2431.3198 
    1850    395.88699    1268.2671    9.0198256    9.0198257    18.000469          120    6118.9619    30473.007   -27290.731   -1627.7168    31878.418   -49870.285    9.0198256    7.8113982    18.000469    3100.4127   -2431.3258 
    1860     394.1494    1267.4609     9.017914    9.0179141    17.996654          120    7692.2417    32125.507   -22177.915   -1697.3822    33360.269   -48212.594     9.017914    7.8097427    17.996654    5879.9445   -2431.3158 
    1870    391.44561    1266.6622    9.0160193    9.0160194    17.992873          120    8665.5174    37362.836   -21954.139   -1629.0951    32809.877   -47805.706    9.0160193    7.8081018    17.992873     8024.738   -2431.2984 
    1880    389.09361    1265.8725    9.0141452    9.0141453    17.989133          120    10072.518    33754.636   -18239.183   -2753.4624    33615.219   -46532.545    9.0141452    7.8064788    17.989133    8529.3235   -2431.2792 
    1890    385.36264    1265.0934    9.0122955    9.0122956    17.985441          120    11725.722    31866.128   -12843.666    -4257.459    34824.535   -46796.609    9.0122955     7.804877    17.985441    10249.394   -2431.2529 
    1900    381.70439    1264.3266    9.0104744    9.0104744    17.981807          120    13232.351    37746.661   -11303.462   -3961.0392    34403.943   -46348.368    9.0104744    7.8032998    17.981807    13225.183   -2431.2332 
    1910    378.51973    1263.5739    9.0086858    9.0086859    17.978238          120     15391.38    37305.785   -8565.7174   -3620.6484     34912.48   -42840.928    9.0086858    7.8017509    17.978238    14710.482   -2431.2058 
    1920    374.88315    1262.8369    9.0069342    9.0069343    17.974742          120    16965.128    34324.987   -4631.7416   -5591.2052    35030.439   -43093.503    9.0069342    7.8002339    17.974742    15552.791   -2431.1764 
    1930    372.11779    1262.1176    9.0052236    9.0052237    17.971328          120    18329.127    38694.714   -2049.1214   -6369.2537    33733.398   -44872.576    9.0052236    7.7987525    17.971328    18324.907   -2431.1408 
    1940    370.36707    1261.4176    9.0035586    9.0035587    17.968005          120    21330.393    40153.322    2015.8734   -5218.1709    34572.038   -41099.936    9.0035586    7.7973106    17.968005     21166.53   -2431.1344 
    1950     368.3946    1260.7391    9.0019439     9.001944    17.964783          120    23235.839    38288.085    4616.0295    -5986.895    34241.672   -38874.786    9.0019439    7.7959122    17.964783    22046.651   -2431.1172 
    1960    367.70411    1260.0837    9.0003839    9.0003839     17.96167          120    23417.082    41358.333     5763.193   -7462.9433    31146.898   -41672.051    9.0003839    7.7945612     17.96167    23512.869   -2431.1344 
    1970    367.45416    1259.4532    8.9988825    8.9988825    17.958673          120    26062.306    42982.491     11601.08   -7380.1302    31797.134   -40589.191    8.9988825    7.7932609    17.958673    26881.959   -2431.1349 
    1980    366.58045    1258.8496    8.9974445    8.9974445    17.955804          120    28828.507    42121.757    14898.699   -7009.4557    32554.319   -36920.681    8.9974445    7.7920156    17.955804    28616.321   -2431.1388 
    1990    366.30389    1258.2745    8.9960741    8.9960742    17.953069          120    28510.072    44747.765    13316.675   -7295.5128     28697.24   -37600.735    8.9960741    7.7908288    17.953069    28858.171   -2431.1721 
    2000    365.28444    1257.7292    8.9947746    8.9947746    17.950475          120      29543.1    46090.418    18516.231   -8608.3221    28218.007   -39143.865    8.9947746    7.7897034    17.950475    31383.249    -2431.146 
    2010    363.11097    1257.2155    8.9935497    8.9935498    17.948031          120    32312.048    45583.742    24011.989   -8915.7382    30109.787   -37433.197    8.9935497    7.7886426    17.948031     33969.26   -2431.1489 
    2020    361.15053    1256.7348    8.9924034    8.9924035    17.945743          120    33197.233    48067.225    21076.425   -7333.0005    27070.914   -35814.418    8.9924034    7.7876499    17.945743    34113.628   -2431.1164 
    2030    358.54738    1256.2882    8.9913381    8.9913382    17.943617          120    33198.682    48722.363     22780.54    -8260.016    25448.281   -36916.155    8.9913381    7.7867273    17.943617    34900.528   -2431.0925 
    2040    355.73798    1255.8768    8.9903564    8.9903565    17.941658          120    34646.531    48342.023    29690.342    -10069.03    27393.275   -38306.314    8.9903564    7.7858771    17.941658    37559.632    -2431.055 
    2050    354.59912    1255.5017    8.9894614    8.9894615    17.939872          120    36320.942    50876.763    27885.373   -8000.8329    25602.337    -37392.13    8.9894614     7.785102    17.939872    38361.026   -2431.0369 
    2060    353.62879    1255.1639    8.9886549    8.9886549    17.938263          120    36923.363    50903.572    25772.905   -7332.3502    24032.737   -36364.613    8.9886549    7.7844035    17.938263    37866.613   -2431.0276 
    2070    353.76181    1254.8637    8.9879382    8.9879383    17.936832          120    37106.147    49861.566    31187.411   -9609.3204     25651.04   -38278.335    8.9879382    7.7837829    17.936832    39385.041    -2431.023 
    2080     355.0057    1254.6019    8.9873133    8.9873133    17.935585          120    37997.735    52745.019    32028.819   -8384.2297    24388.568   -40131.496    8.9873133    7.7832417    17.935585    40923.858   -2431.0513 
    2090    355.48825    1254.3792    8.9867814    8.9867815    17.934524          120    39264.268    53092.108    28808.599   -6771.9866    23292.237   -38580.598    8.9867814    7.7827811    17.934524    40388.325   -2431.0722 
    2100     355.1954    1254.1958    8.9863433    8.9863434    17.933649          120    39687.343    50908.815    30551.359   -8171.3612    25136.132   -37935.706    8.9863433    7.7824017    17.933649    40382.506   -2431.0944 
    2110    353.94576     1254.052    8.9859999        8.986    17.932964          120    39573.751    53777.827    33018.223   -7624.3195    23906.373   -40936.158    8.9859999    7.7821043    17.932964    42123.267   -2431.0893 
    2120    350.05198    1253.9484    8.9857525    8.9857526    17.932471          120     40250.94    55458.868    32447.511   -6288.3496    22737.291   -41338.647    8.9857525      7.78189    17.932471    42719.106   -2431.0571 
    2130     344.8995    1253.8854    8.9856021    8.9856021     17.93217          120    41359.878    53031.911    32003.366   -6690.0957    24755.147    -38349.26    8.9856021    7.7817597     17.93217    42131.718   -2430.9904 
    2140    339.09717    1253.8635    8.9855496    8.9855497    17.932066          120    41439.043    54826.083    33083.416   -5871.9407    23586.933   -39375.157    8.9855496    7.7817143    17.932066    43116.181   -2430.9115 
    2150    332.24175    1253.8831    8.9855964    8.9855965    17.932159          120    40989.831    57407.195    35930.051   -5284.2698    21917.635    -41823.75    8.9855964    7.7817549    17.932159    44775.692   -2430.8173 
    2160    327.21424    1253.9447    8.9857438    8.9857438    17.932453          120    41386.521    55448.458    36432.834   -5918.1456    23578.335   -39288.374    8.9857438    7.7818825    17.932453    44422.604   -2430.7614 
    2170    323.95048    1254.0488    8.9859924    8.9859925    17.932949          120    41741.026    56137.277    33835.618   -4663.5599    22195.129   -37710.614    8.9859924    7.7820978    17.932949     43904.64   -2430.7111 
    2180    322.97638    1254.1955    8.9863427    8.9863428    17.933648          120    41087.183    58369.501     36029.97   -4039.4465    19976.084   -39989.097    8.9863427    7.7824011    17.933648    45162.218    -2430.695 
    2190    325.68021    1254.3848    8.9867947    8.9867948     17.93455          120    40099.311    56596.536    39387.174   -5601.7751    21351.809   -39277.658    8.9867947    7.7827926     17.93455    45361.007   -2430.7589 
    2200    331.16187    1254.6166    8.9873483    8.9873483    17.935655          120    39529.505    56445.961    34503.843   -4958.9598    19700.642   -37396.238    8.9873483     7.783272    17.935655    43493.103   -2430.8704 
    2210    338.34135    1254.8902    8.9880016    8.9880017    17.936959          120    39165.662     58166.08    31372.245   -3548.0945    16738.151   -38110.154    8.9880016    7.7838378    17.936959    42901.329   -2431.0057 
    2220    347.72898    1255.2049    8.9887528    8.9887529    17.938458          120    37960.189    56404.083    35547.459   -4926.1898    18161.561   -37809.774    8.9887528    7.7844884    17.938458     43303.91   -2431.1797 
    2230    356.73362    1255.5598    8.9896001    8.9896001    17.940149          120    36090.699    55370.478    32840.926   -5559.7881     16791.12   -37449.849    8.9896001    7.7852221    17.940149    41434.034   -2431.3377 
    2240     364.5025    1255.9539    8.9905405    8.9905406    17.942026          120    35579.579    56733.958    25052.531   -3988.4808    13280.089   -37832.924    8.9905405    7.7860365    17.942026    39122.022   -2431.4762 
    2250    371.38748    1256.3857    8.9915707    8.9915707    17.944082          120     35356.41    55870.349    25952.859   -3696.3721    14758.655   -36243.994    8.9915707    7.7869287    17.944082    39059.873   -2431.6109 
    2260     375.2932    1256.8542     8.992688    8.9926881    17.946311          120    33317.916    54385.705    26926.804   -4499.6763    14341.733   -36662.391     8.992688    7.7878964    17.946311    38210.142    -2431.708 
    2270     377.0483     1257.358    8.9938895    8.9938896    17.948709          120    31802.021    54571.227    19658.905   -3912.1563    10661.635   -38606.354    8.9938895    7.7889369    17.948709    35344.051   -2431.7735 
    2280    377.46322    1257.8957    8.9951713    8.9951713    17.951267          120    32136.502    54517.132     15837.62   -2509.1856    12096.226   -36303.162    8.9951713    7.7900469    17.951267    34163.751   -2431.8209 
    2290    375.98999    1258.4659    8.9965303    8.9965304    17.953979          120    31371.604    54125.509    17347.606   -1910.2155    12963.637   -35612.091    8.9965303    7.7912239    17.953979    34281.573   -2431.8365 
    2300    374.21594    1259.0677    8.9979642    8.9979643    17.956841          120    29403.416    53275.672    14141.105   -2152.6305    9569.1037   -39059.983    8.9979642    7.7924657    17.956841    32273.398   -2431.8407 
    2310    373.17499    1259.6997    8.9994695    8.9994696    17.959845          120     28736.91    52688.497    8817.8044   -1571.0928    10390.364    -37786.72    8.9994695    7.7937693    17.959845     30081.07   -2431.8587 
    2320    371.92056    1260.3607    9.0010433    9.0010433    17.962986          120    29125.145    53724.778    7432.0197    209.88503    12215.972    -35774.65    9.0010433    7.7951322    17.962986    30093.981   -2431.8678 
    2330    372.07709    1261.0497    9.0026832    9.0026832    17.966258          120      28116.1    53461.241    6619.6617    572.05511     9403.845   -39145.622    9.0026832    7.7965524    17.966258    29399.001   -2431.9026 
    2340    373.11323    1261.7656    9.0043864    9.0043865    17.969657          120    25958.161    51357.296    3701.3141   -613.28244    9199.8941    -39513.71    9.0043864    7.7980275    17.969657     27005.59   -2431.9412 
    2350      374.198    1262.5072    9.0061501    9.0061502    17.973177          120    25519.039    52180.227    16.901112     272.1822    11155.669   -37366.747    9.0061501    7.7995549    17.973177    25905.389   -2431.9745 
    2360    376.48115    1263.2734    9.0079716    9.0079717    17.976812          120    26054.826    53664.318   -2388.5969    1883.6996    9434.9176   -39358.165    9.0079716    7.8011323    17.976812    25776.849   -2432.0442 
    2370    379.23677     1264.063    9.0098481    9.0098481    17.980557          120    23771.197     51112.42   -3039.8233    2.9092437     8647.939   -39874.203    9.0098481    7.8027574    17.980557    23947.931   -2432.1208 
    2380    381.54367    1264.8746    9.0117761    9.0117761    17.984405          120    21366.935    49288.685   -6408.8305   -1783.5876    9882.8753   -38102.395    9.0117761    7.8044271    17.984405    21415.597   -2432.1952 
    2390    384.24283    1265.7068    9.0137518    9.0137519    17.988347          120    22307.965     51156.86    -12053.34   -184.98832    9142.4007   -38900.902    9.0137518    7.8061382    17.988347    20470.495   -2432.2798 
    2400    385.44428    1266.5578    9.0157715    9.0157716    17.992378          120    21518.204    50644.102   -13469.652   -891.76559     8976.738   -38102.735    9.0157715    7.8078873    17.992378    19564.218   -2432.3004 
    2410     384.3106    1267.4261    9.0178313    9.0178314    17.996489          120    18200.013    46862.863   -15096.938   -4522.2326    9326.7506   -36311.867    9.0178313    7.8096711    17.996489    16655.313   -2432.3167 
    2420    381.60644    1268.3098    9.0199268    9.0199269    18.000671          120    18264.327    46789.148   -21830.745   -4537.5728    8345.5557   -37365.869    9.0199268    7.8114858    18.000671    14407.577   -2432.2977 
    2430    376.02012    1269.2071    9.0220534    9.0220535    18.004915          120    18699.224    48438.435   -25428.886   -3648.6332    9089.3972    -35622.46    9.0220534    7.8133275    18.004915    13902.924   -2432.2319 
    2440    368.95043    1270.1162    9.0242071    9.0242072    18.009213          120    15748.363    46089.349   -26113.875   -6398.3865    9769.5437   -33077.707    9.0242071    7.8151927    18.009213    11907.946   -2432.1608 
    2450    361.95298    1271.0355    9.0263838    9.0263838    18.013557          120    14487.986    43474.369   -31787.649   -7968.9623    7768.0956     -35316.4    9.0263838    7.8170777    18.013557    8724.9024   -2432.0749 
    2460    355.30773    1271.9629    9.0285785    9.0285786    18.017936          120    14444.703    44776.761    -36421.27   -6830.0635    8406.9669   -34444.183    9.0285785    7.8189784    18.017936    7600.0649   -2431.9959 
    2470    350.51416    1272.8965     9.030787    9.0307871    18.022344          120    12010.048    45382.754   -37278.854    -7213.381    10571.737   -30623.883     9.030787     7.820891    18.022344     6704.649   -2431.9427 
    2480     348.9737    1273.8347    9.0330052    9.0330053    18.026771          120    9779.2172    42392.511   -41853.071   -8467.7714    8584.0564   -33042.742    9.0330052     7.822812    18.026771    3439.5522   -2431.9341 
    2490    349.18624    1274.7753    9.0352279    9.0352279    18.031206          120    8003.0764    40962.439   -46281.277   -8485.1631    7703.4468   -34363.192    9.0352279    7.8247369    18.031206    894.74614   -2431.9443 
    2500    352.07495    1275.7161      9.03745      9.03745    18.035641          120    5017.1495    42657.997   -46988.354   -7532.9125    10669.229   -30365.163      9.03745    7.8266613    18.035641    228.93079   -2431.9884 
    2510    356.72298    1276.6552     9.039667    9.0396671    18.040065          120    3023.1464    41742.521   -51172.897   -6777.3974    10202.848   -31382.923     9.039667    7.8285814    18.040065    -2135.743   -2432.0685 
    2520    361.05482    1277.5904    9.0418739    9.0418739    18.044469          120    103.08616    38393.698   -55293.236   -7582.1846    7972.1011   -34090.789    9.0418739    7.8304925    18.044469   -5598.8175   -2432.1463 
    2530    365.50862    1278.5194    9.0440649     9.044065    18.048842          120   -3928.3964    38234.285   -55076.708   -7505.2525    9702.6876   -31123.929    9.0440649      7.83239    18.048842   -6923.6065   -2432.2349 
    2540    368.71434    1279.4402    9.0462357    9.0462358    18.053174          120   -4811.3398    39377.661   -58286.275   -4946.7402    10631.779   -30482.663    9.0462357      7.83427    18.053174   -7906.6511    -2432.298 
    2550    369.71383    1280.3511    9.0483819     9.048382    18.057457          120   -6747.2049    37044.933   -62623.786   -4805.5366     8735.629   -32723.586    9.0483819    7.8361287    18.057457   -10775.353   -2432.3298 
    2560    369.37837      1281.25    9.0504989     9.050499    18.061682          120   -11649.589    34874.786   -61590.631   -6457.8479    8719.7041   -31008.832    9.0504989     7.837962    18.061682   -12788.478   -2432.3365 
    2570    367.49586    1282.1353    9.0525831    9.0525831    18.065841          120   -12012.934    35769.587   -62540.688   -4296.2891    9084.1815   -29780.811    9.0525831     7.839767    18.065841   -12928.012   -2432.3242 
    2580    363.83742    1283.0059    9.0546316    9.0546316    18.069929          120   -11642.005    35748.013    -66596.66   -2253.4879    8368.2606   -30716.586    9.0546316     7.841541    18.069929    -14163.55   -2432.2806 
    2590    360.48669    1283.8604    9.0566413    9.0566414     18.07394          120   -16357.242    33459.095   -66183.213   -4244.5529    8314.5757    -29401.92    9.0566413    7.8432816     18.07394   -16360.453   -2432.2325 
    2600    356.61533    1284.6978    9.0586098    9.0586099    18.077869          120   -17874.702    32433.055   -65126.951   -4337.3124    7209.6721    -28790.59    9.0586098    7.8449863    18.077869   -16856.199   -2432.1902 
    2610     352.7871     1285.517     9.060535     9.060535    18.081711          120   -15926.071    33209.632   -67414.893   -1810.1693    6346.9439    -29240.54     9.060535    7.8466535    18.081711   -16710.444   -2432.1328 
    2620    349.98989    1286.3173    9.0624148    9.0624149    18.085462          120   -18877.925    32433.161   -68509.078   -2437.8477    7833.6239   -27594.898    9.0624148    7.8482816    18.085462   -18317.947   -2432.0986 
    2630    346.80332    1287.0979    9.0642476    9.0642476     18.08912          120   -21762.695    30271.925   -67564.731   -4232.2944    6491.0896   -27634.675    9.0642476    7.8498687     18.08912   -19685.167    -2432.045 
    2640    343.48074    1287.8579    9.0660313    9.0660314    18.092679          120   -20513.126     29889.58   -67349.735   -3365.5796    4100.2168   -28800.235    9.0660313    7.8514135    18.092679   -19324.427   -2432.0089 
    2650    340.53739    1288.5967    9.0677647    9.0677647    18.096138          120   -21281.999    30346.455   -68178.221   -2702.1341    6486.9996   -26788.016    9.0677647    7.8529146    18.096138   -19704.588   -2431.9841 
    2660    336.65371    1289.3138    9.0694462    9.0694463    18.099494          120   -23720.977    28762.471   -69597.976   -4254.5576    6710.2164    -26729.39    9.0694462    7.8543709    18.099494   -21518.827   -2431.9368 
    2670    332.83031    1290.0083    9.0710744    9.0710744    18.102744          120   -24074.471    27143.939   -68821.958   -5284.1844     3211.542   -29040.995    9.0710744    7.8557809    18.102744   -21917.497    -2431.886 
    2680    329.97489    1290.6796    9.0726476    9.0726477    18.105883          120   -24202.119    27491.966   -67065.416   -5065.8316     5094.311   -27387.315    9.0726476    7.8571434    18.105883   -21258.523   -2431.8476 
    2690    327.29483    1291.3274    9.0741652    9.0741653    18.108912          120   -24738.746    27105.776    -69981.89   -5434.9904    7291.0685   -26637.064    9.0741652    7.8584577    18.108912   -22538.287   -2431.8241 
    2700    326.49408     1291.951    9.0756258    9.0756258    18.111827          120   -25504.461    25530.186   -72454.574   -6827.9014    4589.8982   -29607.332    9.0756258    7.8597226    18.111827   -24142.949   -2431.8257 
    2710    327.65806    1292.5496    9.0770273    9.0770274    18.114624          120   -26543.599    24717.104   -69128.847   -7967.3149    5746.1532   -29254.582    9.0770273    7.8609363    18.114624    -23651.78   -2431.8522 
    2720    329.83948    1293.1228    9.0783687    9.0783688    18.117301          120   -26062.405    24669.078   -70274.427   -7931.8247    9069.4858   -28087.491    9.0783687     7.862098    18.117301   -23889.251   -2431.9046 
    2730    333.50812    1293.6698    9.0796488    9.0796488    18.119855          120   -25557.822    24350.405    -76810.27   -8160.4009     8006.849   -30541.358    9.0796488    7.8632066    18.119855   -26005.896   -2431.9674 
    2740    337.58787    1294.1898    9.0808651    9.0808652    18.122283          120   -27172.598    23134.308   -75641.541   -9772.1001    9109.7147    -31244.94    9.0808651      7.86426    18.122283   -26559.944   -2432.0441 
    2750    340.16026    1294.6822    9.0820165    9.0820165     18.12458          120   -27302.383    22617.464   -72820.578   -10424.438    12522.835   -30749.725    9.0820165    7.8652571     18.12458   -25835.166   -2432.0868 
    2760    341.81352    1295.1464    9.0831019     9.083102    18.126746          120    -25512.13    23230.783   -79116.706   -9568.9038    12376.487   -32411.193    9.0831019    7.8661971    18.126746   -27132.684    -2432.132 
    2770    341.07924    1295.5819    9.0841199      9.08412    18.128778          120   -25905.557    22755.188   -82231.507   -10274.819    13863.463   -32903.248    9.0841199    7.8670787    18.128778   -28460.625   -2432.1372 
    2780    338.07711    1295.9882    9.0850694    9.0850695    18.130673          120   -26744.503    21818.894   -77685.827   -11539.489    17054.082   -33138.442    9.0850694     7.867901    18.130673   -27537.145    -2432.101 
    2790    334.49265    1296.3653    9.0859505    9.0859505    18.132431          120   -25086.832    22675.453   -79432.083   -10568.489    16546.098   -34983.293    9.0859505     7.868664    18.132431   -27281.154   -2432.0704 
    2800    330.44774    1296.7131    9.0867629    9.0867629    18.134052          120   -24050.944    22709.747   -84362.718   -10223.457    17834.988   -34624.881    9.0867629    7.8693676    18.134052   -28567.972   -2432.0362 
    2810    327.32387    1297.0313    9.0875062    9.0875063    18.135536          120   -24680.787    21598.026   -82304.093   -11390.131    20922.087    -34291.56    9.0875062    7.8700113    18.135536   -28462.285   -2432.0059 
    2820    326.61081    1297.3202    9.0881809    9.0881809    18.136882          120   -24360.002    22187.825   -79914.267   -10923.818    19558.283   -36778.304    9.0881809    7.8705956    18.136882   -27362.148   -2432.0144 
    2830    327.55404    1297.5799    9.0887872    9.0887872    18.138092          120   -23545.277    22135.598   -81992.009   -10394.164    19827.772   -36719.067    9.0887872    7.8711207    18.138092   -27800.563    -2432.039 
    2840    330.00506    1297.8103    9.0893251    9.0893252    18.139166          120    -23531.15    20539.647   -83078.973   -11274.511    22874.654   -34950.651    9.0893251    7.8715866    18.139166   -28690.159   -2432.0956 
    2850    334.04207    1298.0116    9.0897949     9.089795    18.140103          120   -23616.172     20883.55   -80929.828   -10857.944    21282.996   -36865.269    9.0897949    7.8719934    18.140103   -27887.483   -2432.1787 
    2860    337.16163    1298.1837    9.0901968    9.0901968    18.140905          120   -23891.027    20978.801   -78408.209   -10666.829     20263.31   -38217.196    9.0901968    7.8723414    18.140905   -27106.812   -2432.2393 
    2870    339.78319    1298.3271    9.0905314    9.0905314    18.141573          120   -23887.899    18923.352   -78716.072   -11805.544    22796.767   -36023.079    9.0905314    7.8726312    18.141573    -27893.54    -2432.297 
    2880    341.22308    1298.4419    9.0907993    9.0907994    18.142108          120   -23060.394    18750.489   -79393.531   -10983.453    21431.647   -35593.054    9.0907993    7.8728632    18.142108   -27901.145   -2432.3535 
    2890    340.40939    1298.5284    9.0910012    9.0910013    18.142511          120   -23278.127     19495.72   -74886.128   -10735.001     19800.65   -37213.948    9.0910012    7.8730381    18.142511   -26222.845   -2432.3528 
    2900    338.32154    1298.5874    9.0911388    9.0911389    18.142785          120   -24005.907    17867.693   -71143.617    -12572.29    21608.229   -36153.399    9.0911388    7.8731572    18.142785   -25760.611   -2432.3287 
    2910    335.11816    1298.6195    9.0912137    9.0912138    18.142935          120   -22939.367    17435.349   -73244.466   -11853.105    20147.234   -33916.524    9.0912137    7.8732221    18.142935   -26249.495   -2432.3021 
    2920    330.49127    1298.6253    9.0912274    9.0912274    18.142962          120   -21898.309    18469.915   -70986.826   -10895.901    18548.491   -33799.022    9.0912274    7.8732339    18.142962   -24805.074   -2432.2594 
    2930    326.11022    1298.6058    9.0911818    9.0911819    18.142871          120   -22554.338    17752.254   -64353.268   -13089.786    20542.008   -33783.243    9.0911818    7.8731945    18.142871   -23051.784   -2432.2212 
    2940    322.12231     1298.562    9.0910797    9.0910797    18.142667          120   -22899.996    17604.187   -64468.675   -13093.809    19042.473   -32055.545    9.0910797     7.873106    18.142667   -23254.828   -2432.1827 
    2950    318.13457    1298.4948    9.0909228    9.0909229    18.142354          120   -21444.015    18646.647   -65459.644   -11414.254    17036.709   -30084.379    9.0909228    7.8729702    18.142354   -22752.337   -2432.1385 
    2960    315.75081    1298.4051    9.0907135    9.0907135    18.141936          120   -20195.967    18385.179   -59618.538   -12893.511    19900.117   -29428.159    9.0907135    7.8727889    18.141936   -20476.442   -2432.1321 
    2970    313.91908    1298.2942    9.0904546    9.0904546     18.14142          120    -21336.67    19102.826   -56535.705   -13805.719    19294.752   -29484.877    9.0904546    7.8725647     18.14142    -19589.85   -2432.1268 
    2980    312.65224    1298.1631    9.0901486    9.0901487    18.140809          120   -21844.749    20482.352   -58028.713   -12499.211    16435.539   -28008.226    9.0901486    7.8722997    18.140809   -19797.037   -2432.1255 
    2990    312.82872    1298.0128    9.0897978    9.0897978    18.140109          120   -18930.061    20146.239   -55434.783   -12650.109    19034.707   -25677.621    9.0897978    7.8719959    18.140109   -18072.868   -2432.1539 
    3000     313.4977    1297.8445     9.089405     9.089405    18.139325          120   -18592.626     21518.45   -51254.871   -13420.768    19873.456   -26176.401     9.089405    7.8716557    18.139325   -16109.682   -2432.2064 
    3010    314.63957    1297.6595     9.088973    9.0889731    18.138463          120   -21200.382    23745.158   -50864.124   -13545.163    16952.872    -26828.29     9.088973    7.8712816    18.138463   -16106.449   -2432.2475 
    3020    317.07885    1297.4587    9.0885042    9.0885043    18.137528          120   -19016.377    23348.516   -50816.774   -13440.242    18291.126   -24023.239    9.0885042    7.8708756    18.137528   -15494.878   -2432.3014 
    3030    319.37508    1297.2433    9.0880011    9.0880012    18.136524          120   -16073.015    24995.784   -48696.763   -12838.115    19764.124   -23203.272    9.0880011    7.8704399    18.136524   -13257.998   -2432.3656 
    3040    322.00248    1297.0144    9.0874667    9.0874668    18.135457          120    -18261.84    28177.502   -46837.564   -13578.424    17864.435   -25291.583    9.0874667    7.8699771    18.135457   -12307.301   -2432.4312 
    3050    325.23358    1296.7732    9.0869033    9.0869034    18.134333          120   -18344.011    27766.241   -46802.408   -14849.371    18536.298   -23874.763    9.0869033    7.8694892    18.134333   -12460.059    -2432.498 
    3060    327.74632    1296.5205    9.0863131    9.0863131    18.133155          120   -14999.788    29158.489   -47288.537   -13436.029    19419.405   -21977.408    9.0863131     7.868978    18.133155   -11043.279   -2432.5539 
    3070    330.07235    1296.2575    9.0856985    9.0856986    18.131928          120   -14958.389    33207.977   -46146.594   -12814.906    17949.539   -23790.475    9.0856985    7.8684458    18.131928   -9299.0019   -2432.6205 
    3080    332.03548     1295.985    9.0850619     9.085062    18.130658          120   -15862.151    32939.595   -44944.825   -15103.424    18790.988   -23856.288    9.0850619    7.8678945    18.130658    -9289.127   -2432.6869 
    3090    332.34892    1295.7039     9.084405    9.0844051    18.129347          120   -14580.981    33343.044   -45990.462   -15036.568    19088.961   -22403.162     9.084405    7.8673256    18.129347    -9076.133   -2432.7027 
    3100    331.86832     1295.415    9.0837298    9.0837299    18.127999          120    -13165.83    37722.019   -46681.036   -12687.905    16857.796   -23485.882    9.0837298    7.8667409    18.127999    -7374.949   -2432.7137 
    3110    330.56457    1295.1191    9.0830381    9.0830382    18.126619          120   -12426.328    38485.418   -45153.226   -13609.379    17713.797   -23775.401    9.0830381    7.8661418    18.126619   -6364.7118   -2432.7042 
    3120    327.82023     1294.817    9.0823318    9.0823319     18.12521          120   -13196.731    37596.474   -44984.234   -15402.558    18341.968   -23198.787    9.0823318    7.8655301     18.12521   -6861.4971   -2432.7032 
    3130    325.53946    1294.5093    9.0816122    9.0816123    18.123774          120   -13123.307    41010.462   -46490.915   -13645.712    15390.285   -24288.906    9.0816122     7.864907    18.123774   -6201.2532      -2432.7 
    3140    323.24963    1294.1965    9.0808807    9.0808807    18.122314          120   -10256.411    42760.444   -46205.994   -12093.934     15903.31   -23909.945    9.0808807    7.8642734    18.122314   -4567.3204   -2432.6972 
    3150    321.08539    1293.8793    9.0801387    9.0801388    18.120833          120   -10602.543    41945.489   -44957.536   -13745.983     17434.59   -23430.586    9.0801387    7.8636309    18.120833   -4538.1967     -2432.67 
    3160    320.06138    1293.5583    9.0793878    9.0793879    18.119334          120   -13137.805    43566.093   -45325.696   -14138.097     14577.82   -25308.433    9.0793878    7.8629806    18.119334   -4965.8028   -2432.6744 
    3170     319.5928    1293.2339    9.0786288    9.0786288     18.11782          120   -9888.9016     45581.79    -45665.24    -11980.23     14511.04   -24865.415    9.0786288    7.8623232     18.11782   -3324.1172     -2432.66 
    3180    319.54197    1292.9068    9.0778633    9.0778634    18.116292          120   -7607.7195    45662.833   -44772.874    -11690.04    16668.554   -23634.301    9.0778633    7.8616603    18.116292   -2239.2536   -2432.6876 
    3190     321.3428    1292.5778    9.0770932    9.0770933    18.114755          120   -11223.556    46335.781   -43848.466   -13201.639    13988.505    -25854.18    9.0770932    7.8609934    18.114755   -2912.0804   -2432.7247 
    3200    324.03008    1292.2472    9.0763193    9.0763194    18.113211          120   -10638.774    47249.658   -43534.716    -12795.67    13240.802   -26301.268    9.0763193    7.8603232    18.113211   -2307.9437   -2432.8084 
    3210    327.83371    1291.9157     9.075543    9.0755431    18.111661          120   -6176.7542    47991.468   -43069.197   -11238.829    15800.537   -24537.976     9.075543    7.8596509    18.111661   -418.16102   -2432.8952 
    3220      333.338     1291.584    9.0747662    9.0747663    18.110111          120   -7439.2573    48901.784   -42649.638   -11600.905    13286.237    -26111.11    9.0747662    7.8589782    18.110111   -395.70389   -2432.9991 
    3230    338.41384    1291.2527    9.0739903    9.0739904    18.108563          120   -9398.1895    48848.505   -41356.525   -13023.585    11705.844   -27251.333    9.0739903    7.8583062    18.108563   -635.40329   -2433.0963 
    3240    343.08643    1290.9225    9.0732167    9.0732168    18.107019          120   -5851.0753    49204.115   -39806.893   -12375.773    14600.443   -25548.265    9.0732167    7.8576363    18.107019    1182.0489   -2433.1919 
    3250    346.56624    1290.5942    9.0724477    9.0724477    18.105484          120   -3227.4583    50877.506   -40030.977   -11032.782     13043.42   -26017.794    9.0724477    7.8569702    18.105484    2539.6902   -2433.2627 
    3260    347.42637    1290.2689    9.0716853    9.0716853    18.103963          120   -4721.6947    50992.922   -39183.395   -12248.143    11028.156   -26965.513    9.0716853      7.85631    18.103963    2362.6106   -2433.2891 
    3270    346.19165    1289.9473    9.0709315    9.0709316    18.102458          120   -4378.2196    50522.526   -35949.052   -13537.579    13576.516   -25724.222    9.0709315    7.8556572    18.102458     3398.418   -2433.2972 
    3280    343.70317    1289.6305    9.0701889     9.070189    18.100976          120   -391.72098     52230.11   -35227.511   -11805.965    12988.898   -25748.618    9.0701889    7.8550141    18.100976    5536.9593   -2433.2966 
    3290     340.0603    1289.3197    9.0694601    9.0694602    18.099522          120    1185.2363    53284.149    -35976.12   -11299.093    11315.961   -26134.247    9.0694601    7.8543829    18.099522    6164.4217   -2433.2576 
    3300    338.16543    1289.0157    9.0687474    9.0687474      18.0981          120   -462.07791    52179.872   -33426.165   -13359.351    13231.971   -24964.614    9.0687474    7.8537657      18.0981    6097.2096    -2433.257 
    3310    339.22793    1288.7194    9.0680525    9.0680525    18.096713          120    697.03333    52789.376   -31143.215   -12929.246    12601.338   -25260.025    9.0680525    7.8531639    18.096713    7447.7312   -2433.3156 
    3320    343.44897    1288.4315     9.067377    9.0673771    18.095365          120    3496.7719    54089.858   -32254.929   -10965.223    11264.474   -25313.442     9.067377    7.8525789    18.095365    8443.9001   -2433.4244 
    3330    351.76521    1288.1522    9.0667218    9.0667218    18.094057          120    2464.3798    52690.445   -32533.297   -11911.386    13108.115   -23412.899    9.0667218    7.8520115    18.094057    7540.5092   -2433.5908 
    3340    362.08926    1287.8816    9.0660868    9.0660869     18.09279          120    385.54097    51581.949   -30652.575   -12830.554    12094.688   -23842.688    9.0660868    7.8514616     18.09279    7104.9716   -2433.7911 
    3350    372.15226    1287.6194    9.0654716    9.0654717    18.091562          120    1658.6279    52495.461   -29830.118   -11178.713    10697.481    -24490.41    9.0654716    7.8509288    18.091562    8107.9903    -2433.946 
    3360    380.95486    1287.3657    9.0648761    9.0648761    18.090374          120    2625.4325    51978.231   -31323.436    -10338.23    13066.149   -21644.651    9.0648761     7.850413    18.090374    7760.0757   -2434.1055 
    3370    386.38551    1287.1201    9.0642997    9.0642998    18.089224          120    692.74214    50639.387   -31907.665   -11243.182    12430.161   -21269.454    9.0642997    7.8499139    18.089224    6474.8215    -2434.218 
    3380    387.69098    1286.8824    9.0637418    9.0637418     18.08811          120   -268.89077    50679.526    -29473.17   -11305.836    10802.399   -22577.549    9.0637418    7.8494307     18.08811    6979.1551   -2434.2689 
    3390    386.09112    1286.6526     9.063202    9.0632021    18.087033          120     1561.284    50966.127   -28745.075   -10046.901    13675.815   -19462.191     9.063202    7.8489633    18.087033    7927.4453   -2434.2763 
    3400    381.21264    1286.4307     9.062681    9.0626811    18.085993          120    1808.9233    51025.469   -31477.441   -9655.8919    13965.518   -17695.705     9.062681    7.8485121    18.085993    7118.9837   -2434.2367 
    3410    374.51113    1286.2168    9.0621787    9.0621788    18.084991          120    283.45739    50941.976    -30571.34    -10659.71    12087.943   -18927.573    9.0621787     7.848077    18.084991    6884.6977   -2434.1627 
    3420    367.67818     1286.011    9.0616955    9.0616955    18.084026          120    1306.4268    51010.639   -26854.585   -10661.609    15063.376   -16260.479    9.0616955    7.8476585    18.084026    8487.4936   -2434.0615 
    3430    360.78056     1285.814    9.0612326    9.0612326    18.083103          120    2925.9364    52223.212   -28664.535   -9602.1702    16207.684   -13846.391    9.0612326    7.8472577    18.083103    8828.2043   -2433.9855 
    3440    354.84858    1285.6259    9.0607908    9.0607909    18.082221          120    2134.0391    53204.769   -31484.772   -9920.1856    13866.582   -14467.599    9.0607908    7.8468751    18.082221    7951.3453   -2433.9222 
    3450    350.85091     1285.447    9.0603704    9.0603705    18.081382          120     2035.701    52530.206   -28315.519   -11059.377    16362.004   -12456.157    9.0603704     7.846511    18.081382    8750.1295   -2433.8973 
    3460    347.52623    1285.2775    9.0599723    9.0599724    18.080588          120    3539.1378    53282.979   -26740.024    -10777.45     18455.71   -10561.913    9.0599723    7.8461662    18.080588    10027.364   -2433.8751 
    3470    345.44381     1285.118    9.0595973    9.0595974    18.079839          120    4067.8583    55341.686   -31208.665   -9912.7247    15951.285   -10827.554    9.0595973    7.8458415    18.079839     9400.293   -2433.8643 
    3480    344.48836    1284.9684    9.0592459    9.0592459    18.079138          120    4303.6953    54947.374   -31878.747   -10671.545    17326.167   -8985.9674    9.0592459    7.8455371    18.079138    9124.1075   -2433.8767 
    3490    343.51086     1284.829    9.0589184    9.0589184    18.078484          120    5180.1914    54918.198   -28300.318   -11355.112    19716.621   -8304.5231    9.0589184    7.8452535    18.078484    10599.357   -2433.8952 
    3500    343.42952    1284.7004    9.0586159     9.058616    18.077881          120    6332.9634    57180.786   -30307.253   -10127.932    17676.835   -9276.3452    9.0586159    7.8449916    18.077881    11068.832   -2433.9238 
    3510    344.26909    1284.5827    9.0583394    9.0583394    18.077329          120     7908.228    57377.702   -34234.888   -9627.2458    18318.806   -7264.7035    9.0583394    7.8447521    18.077329    10350.347   -2433.9718 
    3520    345.59196    1284.4763    9.0580893    9.0580894     18.07683          120    9060.0984     57173.56   -32465.071   -10244.644    20331.726   -6881.8581    9.0580893    7.8445355     18.07683    11256.196   -2434.0092 
    3530    348.32084    1284.3818    9.0578671    9.0578672    18.076386          120    9812.1955    59488.948   -30971.643   -9443.0629    18595.446   -9328.8459    9.0578671    7.8443431    18.076386      12776.5   -2434.0812 
    3540    352.71394    1284.2997    9.0576742    9.0576742    18.076001          120    11743.329    59571.796   -33516.778   -8722.1538    18971.483   -7953.4561    9.0576742     7.844176    18.076001    12599.449   -2434.1932 
    3550    357.82704    1284.2305    9.0575115    9.0575116    18.075677          120    13768.028    58765.498    -35075.53   -8507.2267     20021.58   -6239.5984    9.0575115    7.8440351    18.075677    12485.999   -2434.3067 
    3560    364.75247    1284.1747    9.0573802    9.0573803    18.075415          120    14008.256    60985.137   -32777.396   -7938.2326     17856.39   -8817.3872    9.0573802    7.8439215    18.075415    14071.999    -2434.443 
    3570    372.07065    1284.1329     9.057282    9.0572821    18.075219          120    15046.256    61090.985   -30846.469   -8197.8443    18011.464   -8907.4243     9.057282    7.8438364    18.075219    15096.924   -2434.5796 
    3580    378.82773    1284.1059    9.0572185    9.0572186    18.075092          120    16948.708     59935.33   -32538.419   -7732.6436    17944.779   -6267.2013    9.0572185    7.8437814    18.075092    14781.873    -2434.703 
    3590    385.49108    1284.0943    9.0571911    9.0571912    18.075037          120    16790.636    62306.265   -31897.575   -6674.5892     14580.57   -7432.4192    9.0571911    7.8437577    18.075037    15733.109   -2434.8366 
    3600    391.82545    1284.0988    9.0572019     9.057202    18.075059          120     17276.75    62938.665   -26782.566    -7688.482    14871.032   -8337.7254    9.0572019     7.843767    18.075059     17810.95    -2434.967 
    3610    398.86813    1284.1207    9.0572533    9.0572533    18.075161          120    18081.616    61820.719    -25092.87   -8570.6027    15103.956    -6687.206    9.0572533    7.8438115    18.075161    18269.822   -2435.1144 
    3620    409.32753    1284.1607    9.0573473    9.0573474    18.075349          120    17088.225    63976.213     -26334.5   -7830.9147    10603.244   -7043.8451    9.0573473    7.8438929    18.075349    18243.313   -2435.3237 
    3630    423.70949    1284.2196    9.0574858    9.0574859    18.075625          120    17945.856    64626.299   -22729.308   -8811.5589    10169.304    -7490.653    9.0574858    7.8440129    18.075625    19947.616   -2435.5744 
    3640       440.14    1284.2983    9.0576709    9.0576709    18.075995          120    18010.549    63746.273   -17711.486   -11711.954    11687.792   -7598.2698    9.0576709    7.8441732    18.075995    21348.445   -2435.8708 
    3650    455.68104    1284.3977    9.0579045    9.0579046    18.076461          120    16716.494    66075.865    -18502.05   -12485.407    7371.3757   -9026.5342    9.0579045    7.8443755    18.076461    21430.103   -2436.1499 
    3660    465.60376    1284.5187    9.0581889     9.058189    18.077029          120    18875.975    67688.509   -18829.043   -12877.085    6084.2442    -8629.867    9.0581889    7.8446218    18.077029     22578.48    -2436.362 
    3670    470.74058    1284.6627    9.0585274    9.0585275    18.077704          120    20587.085    67910.577   -12842.575   -14690.246    7154.3632   -8648.3924    9.0585274    7.8449149    18.077704    25218.363    -2436.493 
    3680    472.55085    1284.8312    9.0589235    9.0589235    18.078495          120    20952.675    69137.132   -10007.762   -15456.413    1805.6291   -10953.083    9.0589235    7.8452579    18.078495    26694.015    -2436.562 
    3690    462.51514    1285.0258    9.0593807    9.0593807    18.079407          120    23307.802     67445.91    -9925.371   -16575.122    -1205.566    -10712.91    9.0593807    7.8456539    18.079407     26942.78   -2436.4508 
    3700    429.95109    1285.2476     9.059902    9.0599021    18.080447          120    27544.962    65142.687   -6361.8322   -17516.879   -1250.2288   -9554.1673     9.059902    7.8461054    18.080447    28775.272   -2435.9949 
    3710    387.69394    1285.4983     9.060491    9.0604911    18.081623          120    30360.059    65332.449   -2175.9423   -17844.754   -5497.6307   -13401.051     9.060491    7.8466155    18.081623    31172.188   -2435.4014 
    3720    365.89649     1285.779    9.0611505    9.0611506    18.082939          120    29369.498    63937.167   -983.26914   -19462.929   -5965.2115   -15031.283    9.0611505    7.8471866    18.082939    30774.465   -2435.1142 
    3730    368.23698    1286.0895    9.0618798    9.0618799    18.084394          120    26620.275    62717.975   -4290.1002   -19962.835   -3062.9203   -13371.895    9.0618798    7.8478182    18.084394    28349.383   -2435.1919 
    3740     381.4982    1286.4284    9.0626756    9.0626757    18.085983          120    26179.809    64116.839   -10166.869   -17061.788   -2705.3066   -12798.716    9.0626756    7.8485074    18.085983    26709.927   -2435.4057 
    3750     404.8793    1286.7939    9.0635339     9.063534    18.087695          120    23658.725    61254.528   -8469.9167   -17006.627    56.522989   -12070.256    9.0635339    7.8492507    18.087695    25481.112   -2435.8131 
    3760    425.64841    1287.1838    9.0644492    9.0644493    18.089522          120    17585.088    55331.037   -4945.8566   -20092.496    2112.9679   -12799.574    9.0644492    7.8500434    18.089522    22656.756   -2436.1705 
    3770    428.74807    1287.5952    9.0654148    9.0654149    18.091449          120    12340.706    51983.372   -8322.8101    -20801.55    157.32724   -14256.312    9.0654148    7.8508796    18.091449    18667.089   -2436.2529 
    3780    416.90796    1288.0251    9.0664236    9.0664237    18.093462          120    9721.8484     48547.01    -9809.638   -20778.904    2715.8729   -13130.308    9.0664236    7.8517532    18.093462    16153.073   -2436.0896 
    3790    399.91783    1288.4709    9.0674694    9.0674695    18.095549          120    7372.9693    45547.383   -8392.5321   -21160.153    6524.9612   -12960.368    9.0674694     7.852659    18.095549    14842.607   -2435.8635 
    3800    384.08998    1288.9302    9.0685468    9.0685469    18.097699          120    2760.2754    44922.862   -11019.143   -20965.677    5312.8554   -15389.975    9.0685468     7.853592    18.097699    12221.331   -2435.6646 
    3810    369.70358    1289.4007    9.0696501    9.0696502    18.099901          120   -373.61484    42739.962   -14941.588   -21215.199    7284.0322   -14693.943    9.0696501    7.8545475    18.099901    9141.5863   -2435.4901 
    3820    356.25535    1289.8801     9.070774    9.0707741    18.102144          120   -1002.0463    41121.768   -16411.942   -20621.461    11847.864   -12653.782     9.070774    7.8555208    18.102144     7902.593   -2435.3186 
    3830    345.22812    1290.3666    9.0719143    9.0719144     18.10442          120   -2484.0267    41958.381   -18816.016   -18981.068    11522.678   -13754.697    9.0719143    7.8565083     18.10442     6886.113   -2435.2059 
    3840    336.80917    1290.8586     9.073067    9.0730671     18.10672          120   -6294.8053    40731.778   -20540.259   -19793.742    11657.383   -14462.223     9.073067    7.8575066     18.10672    4632.2378   -2435.1043 
    3850    331.63464    1291.3544    9.0742285    9.0742286    18.109038          120   -8882.5584    39116.045   -21739.505   -20428.344    14511.384   -12843.989    9.0742285    7.8585125    18.109038    2831.3271     -2435.09 
    3860    330.47941    1291.8526    9.0753954    9.0753954    18.111367          120   -7951.0887    40275.749   -24697.995   -18167.422    15016.856   -12444.078    9.0753954     7.859523    18.111367    2542.2218   -2435.1038 
    3870    332.44151    1292.3521    9.0765649    9.0765649    18.113701          120   -10211.546    39614.892   -24680.757   -18507.193    14856.392   -13085.496    9.0765649    7.8605358    18.113701    1574.1963   -2435.1646 
    3880    336.74957    1292.8518    9.0777345    9.0777346    18.116035          120   -14573.655    37537.108   -23898.261    -20670.48    15626.998   -12839.421    9.0777345    7.8615488    18.116035   -311.60296   -2435.2613 
    3890     343.1885    1293.3506    9.0789019     9.078902    18.118365          120   -13926.759    38394.486   -27042.489   -19301.784    15761.525   -13002.733    9.0789019    7.8625598    18.118365    -858.2543   -2435.3789 
    3900    350.08105    1293.8479    9.0800653    9.0800653    18.120686          120   -13642.776     39049.24   -26805.096   -18296.985    16855.609   -12749.023    9.0800653    7.8635673    18.120686   -466.21054    -2435.513 
    3910    357.30408    1294.3431    9.0812236    9.0812237    18.122998          120   -16793.677    37301.025   -24293.985   -20346.485     17515.08   -12401.428    9.0812236    7.8645704    18.122998   -1262.2124   -2435.6446 
    3920    364.37983     1294.836    9.0823762    9.0823762    18.125298          120   -16896.535    36895.846   -26331.187   -20401.641    16158.202   -14554.102    9.0823762    7.8655686    18.125298   -2110.6254   -2435.7754 
    3930    370.82844    1295.3264    9.0835225    9.0835226    18.127586          120   -15206.832    38622.993   -26906.341   -18583.231    17305.041   -14621.642    9.0835225    7.8665614    18.127586   -1163.3933   -2435.9141 
    3940    377.21955    1295.8144    9.0846633    9.0846633    18.129862          120   -15778.414    39426.133   -24778.331   -18559.284    19581.946   -13022.475    9.0846633    7.8675492    18.129862   -376.87064   -2436.0423 
    3950    384.38471    1296.3006    9.0857992    9.0857992    18.132129          120   -15256.893    38485.797   -26105.013   -18980.967    18039.187   -16406.611    9.0857992     7.868533    18.132129    -958.7028   -2436.1841 
    3960     391.0399    1296.7851     9.086931    9.0869311    18.134388          120   -13917.045    39329.229   -27388.575   -18172.463    18336.722   -18597.529     9.086931    7.8695132    18.134388   -658.79689   -2436.3165 
    3970    394.82295    1297.2684    9.0880598    9.0880598    18.136641          120   -13985.288    42749.505   -26427.507   -16656.944    22043.761   -17272.434    9.0880598    7.8704907    18.136641    778.90317   -2436.4303 
    3980    391.29979    1297.7511    9.0891868    9.0891868     18.13889          120   -11891.885    45400.629   -29398.289    -14615.36    22356.236   -20603.672    9.0891868    7.8714667     18.13889    1370.1516   -2436.4079 
    3990    378.44781    1298.2338    9.0903135    9.0903136    18.141138          120   -11508.675    46940.371   -32482.014   -14277.199    21318.364   -24337.148    9.0903135    7.8724425    18.141138    983.22751   -2436.2398 
    4000    364.54351     1298.717    9.0914413    9.0914414    18.143389          120   -13389.912    48905.584   -31042.509     -14624.2    22572.211   -24267.122    9.0914413    7.8734192    18.143389    1491.0543   -2436.0332 
    4010    355.61444    1299.2012     9.092571    9.0925711    18.145643          120   -10293.919     50856.96   -33509.818   -12332.551    22512.277    -25402.72     9.092571    7.8743976    18.145643    2351.0743   -2435.9368 
    4020    346.99229    1299.6862    9.0937023    9.0937024    18.147901          120   -9679.7626    49911.614   -35724.943   -11727.726    20580.884   -26529.172    9.0937023    7.8753773    18.147901     1502.303   -2435.8391 
    4030    344.23629    1300.1712    9.0948334    9.0948335    18.150158          120   -13675.528    45457.473   -34943.701   -14214.322    19242.508    -26592.78    9.0948334    7.8763569    18.150158   -1053.9188   -2435.8213 
    4040    360.23812    1300.6546    9.0959604    9.0959605    18.152408          120   -14218.764    43590.799   -39162.451   -14037.124    17512.451   -28745.526    9.0959604    7.8773329    18.152408    -3263.472   -2436.0996 
    4050    383.92486    1301.1341    9.0970781    9.0970781    18.154638          120   -14504.492    43632.393   -43792.073   -13142.066    20164.613   -27784.413    9.0970781    7.8783008    18.154638   -4888.0571   -2436.4955 
    4060    398.65622    1301.6071    9.0981802    9.0981803    18.156838          120   -19007.483    40696.561   -44930.307   -15547.761    23839.682   -25123.735    9.0981802    7.8792553    18.156838    -7747.076   -2436.7647 
    4070    402.39498    1302.0707    9.0992602    9.0992603    18.158993          120   -21729.747    37282.344   -50063.514   -17143.867    22375.318   -26524.249    9.0992602    7.8801906    18.158993   -11503.639   -2436.8531 
    4080    397.59548    1302.5219    9.1003112    9.1003113     18.16109          120     -22956.5    33363.323   -52406.937   -18035.396     20637.22   -27534.199    9.1003112    7.8811008     18.16109   -14000.038   -2436.8213 
    4090    386.69326    1302.9582    9.1013271    9.1013272    18.163118          120   -25220.442    28926.474   -49900.936   -19635.093    21960.022   -25466.928    9.1013271    7.8819806    18.163118   -15398.301   -2436.6905 
    4100    370.95496    1303.3771    9.1023025    9.1023026    18.165064          120   -25001.439    25467.114   -53888.354   -19975.586    21396.261   -25723.163    9.1023025    7.8828253    18.165064    -17807.56   -2436.4785 
    4110    352.73659    1303.7766    9.1032323    9.1032324     18.16692          120   -25413.257    21398.213   -57352.674   -21363.133    18502.513   -27673.565    9.1032323    7.8836305     18.16692   -20455.906   -2436.2391 
    4120    335.80051    1304.1547    9.1041122    9.1041123    18.168676          120    -27178.37    17814.869   -54590.307   -23457.375    17833.649   -26587.415    9.1041122    7.8843925    18.168676   -21317.936   -2435.9992 
    4130    322.43425      1304.51    9.1049389     9.104939    18.170325          120   -25761.271    17061.088   -57134.972   -22782.016    18238.503   -25501.881    9.1049389    7.8851085    18.170325   -21945.052    -2435.811 
    4140    312.93785    1304.8413    9.1057095    9.1057096    18.171863          120   -25491.208    16014.408   -62321.053   -22954.592    17625.667   -25419.871    9.1057095    7.8857758    18.171863   -23932.618   -2435.6939 
    4150    308.44719    1305.1472     9.106421    9.1064211    18.173283          120   -28187.679    13325.594   -61233.194   -25524.645    16446.815   -24816.052     9.106421     7.886392    18.173283   -25365.093   -2435.6544 
    4160    308.06126    1305.4267    9.1070712    9.1070712    18.174581          120   -27618.037    13824.468   -62023.315   -25071.792    15538.899   -24326.314    9.1070712    7.8869551    18.174581   -25272.295   -2435.6574 
    4170    310.31225    1305.6792    9.1076582    9.1076582    18.175752          120   -26448.092    15320.832   -66206.754    -23871.44    16419.456   -22260.722    9.1076582    7.8874634    18.175752   -25778.005   -2435.7168 
    4180    315.35493    1305.9039    9.1081807    9.1081808    18.176795          120   -29082.088    14391.622   -66566.214   -25782.801    16828.362   -20512.482    9.1081807     7.887916    18.176795    -27085.56   -2435.8264 
    4190    322.21754    1306.1006    9.1086379     9.108638    18.177707          120   -29130.981    15805.142   -67454.239   -25541.117    14914.909    -20859.97    9.1086379    7.8883119    18.177707   -26926.693   -2435.9368 
    4200    331.06421    1306.2692    9.1090299      9.10903     18.17849          120   -27060.693    18825.932   -69103.748   -23545.316    14993.189   -19813.912    9.1090299    7.8886514     18.17849   -25779.503    -2436.106 
    4210    343.54486    1306.4102    9.1093576    9.1093577    18.179144          120   -29009.253    19748.577   -67749.559   -24462.971    17185.117   -17819.392    9.1093576    7.8889352    18.179144   -25670.078   -2436.3255 
    4220    358.14052    1306.5241    9.1096224    9.1096225    18.179672          120    -29620.95    21777.377   -69510.054   -24305.884    16445.237   -18456.712    9.1096224    7.8891645    18.179672   -25784.542   -2436.5801 
    4230    369.27211    1306.6117    9.1098258    9.1098259    18.180078          120   -27527.576    25220.758   -70427.873   -22371.652    13951.498   -21120.956    9.1098258    7.8893407    18.180078   -24244.897   -2436.7923 
    4240    370.92119    1306.6739    9.1099705    9.1099706    18.180367          120   -27841.674    26885.506   -65553.501   -22516.383    14360.796   -21647.882    9.1099705     7.889466    18.180367   -22169.889   -2436.8587 
    4250    361.62166    1306.7125    9.1100601    9.1100602    18.180546          120   -26782.667    29119.145   -65977.657   -21783.153    16301.754   -20909.661    9.1100601    7.8895436    18.180546   -21213.726   -2436.7447 
    4260    348.93466    1306.7289    9.1100983    9.1100984    18.180622          120   -24577.616    31961.108   -68750.043    -20018.04    18026.467   -21012.675    9.1100983    7.8895767    18.180622   -20455.517   -2436.5851 
    4270    337.54623    1306.7248    9.1100888    9.1100889    18.180603          120   -25653.113    33171.257   -62992.906   -20481.733    19255.981   -20001.967    9.1100888    7.8895684    18.180603   -18491.587    -2436.438 
    4280    331.00217    1306.7017     9.110035     9.110035    18.180496          120   -26442.312    35876.007   -59466.638   -19909.748     20775.13   -18337.466     9.110035    7.8895218    18.180496   -16677.648   -2436.3699 
    4290    340.20352    1306.6606    9.1099395    9.1099396    18.180305          120   -27718.377    38443.672    -60759.35   -19553.487    22916.362   -16151.911    9.1099395    7.8894391    18.180305   -16678.018   -2436.5174 
    4300    360.01953    1306.6021    9.1098036    9.1098036    18.180034          120   -32077.087    37494.437    -58381.57   -22560.844    20922.665   -14973.768    9.1098036    7.8893214    18.180034    -17654.74   -2436.8409 
    4310     375.1082     1306.526    9.1096268    9.1096269    18.179681          120   -32929.931    36585.579   -57213.336   -23771.828    16294.731   -15035.201    9.1096268    7.8891683    18.179681   -17852.563   -2437.1073 
    4320    380.05687    1306.4318    9.1094078    9.1094079    18.179244          120    -31860.84    35990.501   -57625.132   -23721.322    13159.328   -13763.482    9.1094078    7.8889787    18.179244   -17831.824   -2437.2286 
    4330    377.39448    1306.3188    9.1091451    9.1091452     18.17872          120   -35171.606    33182.728   -54855.685   -26527.247    12804.609   -10580.769    9.1091451    7.8887512     18.17872   -18948.188   -2437.2292 
    4340    367.67688    1306.1864    9.1088373    9.1088374    18.178105          120   -36280.571    30899.157   -54809.085   -28144.997    12368.063   -8275.9127    9.1088373    7.8884846    18.178105     -20063.5   -2437.1322 
    4350    353.80306    1306.0341    9.1084834    9.1084835    18.177399          120   -34130.981    30694.818   -55084.019   -27302.117    10435.978   -7509.1612    9.1084834    7.8881781    18.177399   -19506.728   -2436.9599 
    4360    339.69931    1305.8621    9.1080835    9.1080836    18.176601          120   -34605.629     29062.06   -50805.793   -28308.875    9080.5286   -7444.3711    9.1080835    7.8878318    18.176601   -18783.121   -2436.7731 
    4370    328.10767    1305.6706    9.1076382    9.1076383    18.175712          120   -35115.393     27216.79   -50271.499   -29345.747    9999.9695   -5482.8337    9.1076382    7.8874461    18.175712   -19390.034   -2436.6266 
    4380    320.90077    1305.4596    9.1071476    9.1071477    18.174733          120   -33851.184    26909.315   -52054.917   -28591.632    10603.679    -3774.418    9.1071476    7.8870213    18.174733   -19665.595   -2436.5655 
    4390    318.98657    1305.2294    9.1066122    9.1066123    18.173665          120   -33873.252    26740.933   -48724.145   -28238.669    8066.7373   -5587.9129    9.1066122    7.8865576    18.173665   -18618.821   -2436.5706 
    4400    320.77436    1304.9802    9.1060326    9.1060327    18.172508          120   -34001.792    26497.456   -47653.733   -27949.094    7303.7403    -5935.162    9.1060326    7.8860556    18.172508   -18386.023   -2436.6445 
    4410    324.99642    1304.7123    9.1054094    9.1054095    18.171264          120   -33421.047    26614.247   -50250.169   -27310.165    9466.3375   -4372.8553    9.1054094    7.8855159    18.171264    -19018.99   -2436.7329 
    4420    330.55854    1304.4258    9.1047431    9.1047432    18.169935          120    -33823.94    26647.735    -48078.17   -27159.629    8634.0002   -5683.8934    9.1047431    7.8849389    18.169935   -18418.125   -2436.8598 
    4430    335.76157    1304.1214    9.1040348    9.1040349    18.168521          120    -32233.06    27613.803   -46640.647   -25765.216    6794.4843   -7711.5486    9.1040348    7.8843255    18.168521   -17086.635    -2436.989 
    4440    341.08259    1303.7997    9.1032861    9.1032862    18.167027          120       -30063    29004.109   -49848.258   -23963.141    8610.8246   -7971.9284    9.1032861    7.8836771    18.167027    -16969.05   -2437.1147 
    4450    348.16807    1303.4612    9.1024983    9.1024983    18.165455          120   -31292.506     29032.37   -48900.288   -24412.638    11010.882   -7671.1964    9.1024983    7.8829948    18.165455   -17053.474   -2437.2774 
    4460    356.88365    1303.1067    9.1016728    9.1016729    18.163808          120   -29815.713    29774.308   -47093.927   -23622.483    11828.413   -8072.4704    9.1016728      7.88228    18.163808   -15711.777   -2437.4493 
    4470    363.41108    1302.7369    9.1008118    9.1008119    18.162089          120   -25818.125    31994.852   -49003.802   -20889.274    14287.706   -8215.4506    9.1008118    7.8815343    18.162089   -14275.691   -2437.5956 
    4480    359.04656    1302.3529    9.0999176    9.0999176    18.160305          120   -26395.901    32558.993   -47358.965   -21053.445    17876.468   -6912.5434    9.0999176    7.8807599    18.160305   -13731.958   -2437.5694 
    4490    339.45937     1301.956    9.0989929     9.098993    18.158459          120   -26967.237    33438.256    -44654.52   -21172.105      21828.6   -4931.6695    9.0989929    7.8799591    18.158459   -12727.834   -2437.3163 
    4500    318.15136    1301.5475    9.0980414    9.0980415    18.156561          120   -23634.454    36650.426   -45213.254   -18372.648    24944.738   -4199.8512    9.0980414    7.8791351    18.156561   -10732.427   -2437.0229 
    4510    305.90744     1301.129    9.0970661    9.0970662    18.154614          120   -20646.765     37550.62    -45814.31   -17279.334    23021.467   -6634.0379    9.0970661    7.8782905    18.154614   -9636.8184   -2436.8595 
    4520    293.88746    1300.7011    9.0960688    9.0960688    18.152624          120   -20180.347    37772.997   -48230.105   -17287.948    22344.272   -8420.8527    9.0960688    7.8774267    18.152624   -10212.485   -2436.7107 
    4530     286.0877     1300.264    9.0950496    9.0950497     18.15059          120    -20272.01     38993.94   -51468.913   -16467.919    25060.228   -7966.7247    9.0950496    7.8765441     18.15059   -10915.661   -2436.6356 
    4540    296.10668    1299.8174    9.0940084    9.0940084    18.148512          120   -21593.052    38148.549   -48937.428   -17719.143     25034.92   -7630.4114    9.0940084    7.8756424    18.148512   -10793.977   -2436.8209 
    4550    311.35189    1299.3611     9.092944    9.0929441    18.146388          120    -21817.87     36908.88   -47855.914   -18850.025    24441.086   -8045.9495     9.092944    7.8747206    18.146388   -10921.634   -2437.0675 
    4560    317.17522    1298.8943    9.0918551    9.0918551    18.144215          120   -22424.415    35822.665   -50243.157   -19980.025    26602.219   -7286.4068    9.0918551    7.8737775    18.144215   -12281.635   -2437.2004 
    4570    317.51406    1298.4163    9.0907396    9.0907397    18.141989          120   -25387.842    33065.331   -48492.154   -23320.619    27225.631   -7142.4759    9.0907396    7.8728115    18.141989   -13604.889   -2437.2355 
    4580    316.55005    1297.9262    9.0895957    9.0895958    18.139706          120   -25909.108    31990.113    -47495.99   -24790.811    26928.431   -8012.5815    9.0895957    7.8718209    18.139706   -13804.995   -2437.2643 
    4590    313.54869    1297.4233    9.0884216    9.0884217    18.137363          120   -24119.547    33061.776   -51206.665   -24185.327    26079.883   -9765.7961    9.0884216    7.8708041    18.137363   -14088.145   -2437.2586 
    4600    307.92591     1296.907    9.0872159     9.087216    18.134956          120   -25563.321    32368.052   -52698.196   -25986.357    24052.384   -12183.733    9.0872159    7.8697599    18.134956   -15297.822   -2437.2099 
    4610    300.51521    1296.3768    9.0859773    9.0859774    18.132485          120   -27521.114    32495.754   -52049.749    -27482.78     24367.33   -12421.251    9.0859773    7.8686872    18.132485   -15691.703   -2437.1347 
    4620    293.51711    1295.8325    9.0847056    9.0847056    18.129947          120   -26340.137    34859.656   -52748.505   -26448.717    24916.204   -12737.299    9.0847056    7.8675859    18.129947   -14742.995   -2437.0644 
    4630    288.27755    1295.2745    9.0834014    9.0834015    18.127344          120   -26568.121    36132.145   -52277.477   -26794.945    22531.263   -15117.847    9.0834014    7.8664565    18.127344   -14237.817   -2437.0216 
    4640    284.90083    1294.7034    9.0820661    9.0820662    18.124679          120   -27694.481    37335.974   -52279.121   -27697.901    22039.532    -15823.76    9.0820661       7.8653    18.124679   -14212.542   -2436.9925 
    4650    283.83606    1294.1198    9.0807014    9.0807014    18.121956          120   -26792.556    39589.903   -51826.149   -27308.072    24505.569   -14333.504    9.0807014    7.8641182    18.121956   -13009.601   -2437.0104 
    4660    284.74423     1293.525    9.0793098    9.0793099    18.119179          120    -26087.98    41132.329   -48199.625   -27609.636    23679.051   -14396.267    9.0793098     7.862913    18.119179   -11051.759   -2437.0703 
    4670    286.15951    1292.9202    9.0778946    9.0778947    18.116354          120   -24679.739    42326.999   -47684.092   -27936.992    21910.944   -15313.122    9.0778946    7.8616874    18.116354   -10012.277   -2437.1459 
    4680    287.62933     1292.307    9.0764593    9.0764594     18.11349          120   -22146.889    44213.533   -48714.992   -27432.134    23922.646   -13806.912    9.0764593    7.8604445     18.11349   -8882.7824   -2437.2023 
    4690    288.95091    1291.6872     9.075008    9.0750081    18.110594          120    -20108.56    45288.291   -44048.194   -27785.377      24680.2   -12389.466     9.075008    7.8591875    18.110594   -6289.4876   -2437.2615 
    4700     290.7544    1291.0628    9.0735455    9.0735456    18.107675          120   -16153.448    46776.792   -41284.896   -27417.775     23498.68   -12639.429    9.0735455     7.857921    18.107675   -3553.8507   -2437.3137 
    4710    293.31019    1290.4362    9.0720774    9.0720775    18.104745          120   -10568.721    49871.109   -45223.863   -25778.973    22977.929   -12966.846    9.0720774    7.8566496    18.104745   -1973.8252   -2437.3817 
    4720    293.94084    1289.8097    9.0706089     9.070609    18.101815          120   -7445.6109    52015.557   -44783.162   -26004.808    21997.583   -12901.161    9.0706089    7.8553778    18.101815   -71.071867   -2437.4206 
    4730    289.31753    1289.1855    9.0691454    9.0691454    18.098894          120   -5444.4603    55027.341   -40790.935   -26062.667    22098.521   -11832.034    9.0691454    7.8541104    18.098894    2930.6484   -2437.3836 
    4740    282.17342    1288.5659    9.0676922    9.0676923    18.095994          120   -1795.5297    59569.948   -41927.808   -23952.849     23244.88   -11065.083    9.0676922    7.8528519    18.095994    5282.2034   -2437.3075 
    4750    276.48291     1287.953    9.0662544    9.0662544    18.093124          120   -962.67683      61324.1    -41874.89    -23688.16    23282.633   -10311.917    9.0662544    7.8516067    18.093124    6162.1776   -2437.2475 
    4760    273.21794    1287.3483    9.0648353    9.0648354    18.090293          120   -1164.9455    60858.664   -39131.016    -24533.12    24579.579   -7599.3611    9.0648353    7.8503778    18.090293    6854.2342   -2437.2293 
    4770    275.34967    1286.7528    9.0634375    9.0634375    18.087503          120    1111.1274    60302.309   -37171.843   -24391.968    27897.972   -3779.4356    9.0634375    7.8491672    18.087503     8080.531   -2437.2932 
    4780    283.71887    1286.1671    9.0620621    9.0620622    18.084758          120    2764.2783    58616.752   -34919.936   -25355.838    26833.748   -3405.4057    9.0620621    7.8479761    18.084758    8820.3649   -2437.4452 
    4790    289.57841    1285.5915      9.06071      9.06071     18.08206          120    4026.3823    56922.917   -36245.267    -26351.42    23297.682   -5603.4273      9.06071    7.8468051     18.08206    8234.6776   -2437.5681 
    4800     289.7915    1285.0259    9.0593811    9.0593811    18.079408          120     4750.742    57218.544   -39325.596    -25697.04    21871.738   -6637.8057    9.0593811    7.8456542    18.079408    7547.8968   -2437.6028 
    4810    287.72451    1284.4701    9.0580747    9.0580748    18.076801          120    2038.4058    56811.493    -35453.31   -26099.847    21312.628   -6520.3777    9.0580747    7.8445229    18.076801     7798.863   -2437.5987 
    4820    281.80416    1283.9237      9.05679    9.0567901    18.074237          120   -1186.6199    56538.469   -31921.551   -26479.733    20432.542   -6832.6661      9.05679    7.8434103    18.074237    7810.0995   -2437.5396 
    4830    271.79756    1283.3862    9.0555262    9.0555263    18.071715          120   -2139.7303    57163.035   -34233.184   -25433.809     19835.26   -8201.4327    9.0555262    7.8423158    18.071715    6930.0402    -2437.418 
    4840    260.91402    1282.8576    9.0542826    9.0542827    18.069233          120   -3966.2437    56651.751   -32318.509   -25801.471    18699.172    -8624.303    9.0542826    7.8412389    18.069233    6788.9994   -2437.2815 
    4850    253.15782    1282.3377    9.0530594    9.0530595    18.066792          120   -5807.4115    56083.236   -27380.352   -26483.027    18231.679   -7547.5132    9.0530594    7.8401795    18.066792    7631.8241   -2437.2063 
    4860    250.93187    1281.8267    9.0518567    9.0518568    18.064392          120   -5568.5489    55997.179   -27539.917   -25888.059    19014.566   -7240.8109    9.0518567    7.8391379    18.064392    7629.5713   -2437.2002 
    4870    254.15091    1281.3245    9.0506744    9.0506745    18.062032          120   -5285.7541    54404.791   -28638.155   -26361.632    17109.229   -9258.2718    9.0506744     7.838114    18.062032    6826.9608   -2437.2711 
    4880    261.21236     1280.831    9.0495123    9.0495124    18.059713          120   -4898.0201    52949.306    -26726.67   -26990.714    15328.449   -10507.807    9.0495123    7.8371077    18.059713    7108.2052   -2437.3942 
    4890     270.4912    1280.3463    9.0483707    9.0483707    18.057435          120   -3695.1857    53459.605    -25750.02   -26304.009    16324.095   -9771.7466    9.0483707    7.8361189    18.057435    8004.7998   -2437.5601 
    4900    279.71159    1279.8706    9.0472499    9.0472499    18.055198          120   -2749.0249    52785.152   -26085.877   -26581.342    14958.144   -11135.775    9.0472499    7.8351483    18.055198    7983.4166   -2437.7379 
    4910    287.35215    1279.4042    9.0461507    9.0461508    18.053005          120   -1494.7386    52206.555   -26555.317   -26987.825    12079.042   -14066.767    9.0461507    7.8341964    18.053005    8052.1666   -2437.8789 
    4920    293.64751    1278.9476    9.0450745    9.0450746    18.050857          120    776.92462    54252.548   -26550.672   -25639.396     11982.56   -14516.824    9.0450745    7.8332644    18.050857    9492.9334   -2438.0201 
    4930    298.63577    1278.5019    9.0440236    9.0440236    18.048759          120    1225.3402    55664.044   -23264.723   -25687.315    12498.294   -14090.786    9.0440236    7.8323542    18.048759    11208.221   -2438.1301 
    4940    301.30611    1278.0681    9.0430007    9.0430008    18.046718          120    865.12757     56855.59   -21370.946   -26361.211    11766.773   -15036.209    9.0430007    7.8314684    18.046718     12116.59   -2438.1983 
    4950    299.36285    1277.6479    9.0420094    9.0420095     18.04474          120    3488.7468    60086.529   -22579.884   -24913.945    12185.053   -15145.053    9.0420094    7.8306099     18.04474    13665.131   -2438.2086 
    4960    291.36956    1277.2429     9.041054    9.0410541    18.042833          120    5326.5542    62825.389    -18412.29   -24489.899    13719.589   -13893.015     9.041054    7.8297825    18.042833    16579.884   -2438.1178 
    4970    282.47915    1276.8553    9.0401394    9.0401395    18.041008          120    5564.7252    64449.551   -13514.408   -25595.656    15256.274   -13011.488    9.0401394    7.8289905    18.041008    18833.289   -2438.0123 
    4980    280.39099     1276.487    9.0392701    9.0392702    18.039273          120    8125.3155    66552.949   -16172.632   -25401.923    16633.098   -13306.509    9.0392701    7.8282376    18.039273    19501.877   -2438.0257 
    4990    281.05027    1276.1393    9.0384492    9.0384493    18.037635          120    11400.309    68004.237   -18498.715   -25064.799    14944.218   -16079.598    9.0384492    7.8275267    18.037635    20301.944   -2438.0723 
    5000    277.42136    1275.8131     9.037679    9.0376791    18.036098          120    13666.282    68641.603   -16499.032    -25485.88    13308.191    -17805.57     9.037679    7.8268597    18.036098    21936.284   -2438.0387 
    5010    276.76018    1275.5093    9.0369616    9.0369617    18.034666          120    15128.317    70277.088   -17174.791   -25436.666    14905.779   -16928.863    9.0369616    7.8262384    18.034666    22743.538   -2438.0564 
    5020    285.28649    1275.2283    9.0362981    9.0362982    18.033342          120    13369.046    70706.024   -17837.171   -27381.049    15621.021   -17174.384    9.0362981    7.8256638    18.033342      22079.3   -2438.2121 
    5030    291.83909    1274.9702    9.0356884    9.0356885    18.032125          120    10828.809    70800.546   -16702.035   -29857.771    14424.454   -18411.452    9.0356884    7.8251358    18.032125     21642.44   -2438.3429 
    5040    287.30912    1274.7347    9.0351319     9.035132    18.031015          120    10550.495    72608.302   -16283.308   -30270.678    15142.998   -17753.655    9.0351319    7.8246539    18.031015     22291.83   -2438.2914 
    5050    276.38532    1274.5216    9.0346285    9.0346286     18.03001          120    8520.7667    72937.179   -14633.699   -31922.647    16328.838   -16138.176    9.0346285    7.8242179     18.03001    22274.749   -2438.1571 
    5060    266.98811    1274.3307    9.0341773    9.0341774     18.02911          120    5956.4112    71426.247   -14425.233   -34643.924    15496.883   -16058.955    9.0341773    7.8238271     18.02911    20985.808   -2438.0521 
    5070    261.09114    1274.1612    9.0337768    9.0337769     18.02831          120    7363.2933    70397.091    -17145.51   -35237.853    13923.288   -17063.032    9.0337768    7.8234803     18.02831    20204.958   -2437.9941 
    5080    256.19824    1274.0125    9.0334254    9.0334255    18.027609          120    8513.7253    69071.533   -16295.167   -36108.417    12297.334   -17173.015    9.0334254     7.823176    18.027609     20430.03   -2437.9346 
    5090    251.09066    1273.8841    9.0331219     9.033122    18.027003          120    7581.8006     66807.52   -14418.996   -38202.628    12285.969   -15765.378    9.0331219    7.8229131    18.027003    19990.108   -2437.8934 
    5100    247.25628    1273.7755    9.0328653    9.0328653    18.026491          120    8961.2495    65902.146   -17208.176   -38559.169     12292.84   -15256.028    9.0328653    7.8226909    18.026491    19218.406   -2437.8473 
    5110    246.83065    1273.6866    9.0326551    9.0326552    18.026072          120     10942.65    65346.427   -17203.335   -38479.641    10332.779   -16054.564    9.0326551    7.8225089    18.026072    19695.247   -2437.8571 
    5120    251.41939    1273.6176    9.0324919    9.0324919    18.025746          120    11229.272    64461.019   -13921.436   -39212.275    9753.9926   -15452.464    9.0324919    7.8223675    18.025746    20589.618   -2437.9575 
    5130     259.9806    1273.5686     9.032376     9.032376    18.025515          120    11447.924    64813.349   -15251.642   -39102.938    11797.123   -13465.494     9.032376    7.8222671    18.025515    20336.544   -2438.1063 
    5140    268.26083    1273.5397    9.0323078    9.0323078    18.025379          120    11303.249    65230.674   -16235.985   -38866.736    12249.429   -12955.734    9.0323078    7.8222081    18.025379    20099.312   -2438.2636 
    5150    272.26041    1273.5313    9.0322878    9.0322879    18.025339          120    11173.835    65969.523   -13271.706   -38356.898    10641.203   -13677.016    9.0322878    7.8221908    18.025339    21290.551   -2438.3505 
    5160    271.25321    1273.5438    9.0323174    9.0323174    18.025398          120    12282.009    68292.765   -13356.027   -36367.375    11387.401   -12746.604    9.0323174    7.8222164    18.025398    22406.249    -2438.356 
    5170    267.43045     1273.578    9.0323982    9.0323983    18.025559          120    12263.312    69925.126   -14715.194   -35225.199     12766.46   -11782.478    9.0323982    7.8222864    18.025559    22491.081   -2438.3198 
    5180    263.80739    1273.6344    9.0325317    9.0325318    18.025826          120    11845.596    70571.582   -13397.898   -34915.135     10828.86   -13093.276    9.0325317     7.822402    18.025826    23006.427   -2438.2987 
    5190     258.8261    1273.7139    9.0327195    9.0327196      18.0262          120     14716.03    72063.917   -13540.958   -33130.587    8063.8877   -15541.782    9.0327195    7.8225646      18.0262    24412.996   -2438.2507 
    5200    248.53614    1273.8169    9.0329631    9.0329632    18.026687          120    16602.249    73037.379    -14105.25   -32189.947     7111.369   -16648.218    9.0329631    7.8227756    18.026687    25178.126   -2438.1203 
    5210    233.49564    1273.9443    9.0332641    9.0332642    18.027287          120    16564.076    72652.911    -13764.92   -32877.088    7605.0131   -15793.962    9.0332641    7.8230363    18.027287    25150.689   -2437.9091 
    5220    220.75404    1274.0965    9.0336239     9.033624    18.028005          120    18794.153    73748.487   -15668.899   -31485.592    7546.0407   -16033.661    9.0336239    7.8233479    18.028005     25624.58   -2437.7297 
    5230    214.92263     1274.274    9.0340434    9.0340435    18.028843          120    20333.907      75180.8   -16304.111   -29856.413    7376.5953   -16419.312    9.0340434    7.8237112    18.028843    26403.532   -2437.6521 
    5240    216.26097    1274.4768    9.0345227    9.0345227    18.029799          120    18182.544    75276.283   -15863.964   -30586.881    8654.8118   -14963.602    9.0345227    7.8241262    18.029799    25864.954   -2437.6766 
    5250    223.66625    1274.7043    9.0350602    9.0350603    18.030872          120    15850.767    76363.445   -20028.587   -30660.743    10698.599   -13572.484    9.0350602    7.8245918    18.030872    24061.875   -2437.8088 
    5260    233.87282    1274.9555    9.0356535    9.0356536    18.032056          120    14959.264    76830.787   -23062.751   -30426.319    9984.6317   -14276.982    9.0356535    7.8251056    18.032056      22909.1   -2437.9833 
    5270    241.42925     1275.229    9.0362997    9.0362998    18.033345          120    13772.965    75556.194   -21881.278   -31497.517    6794.8942   -16079.236    9.0362997    7.8256652    18.033345    22482.627   -2438.1257 
    5280    245.20366    1275.5239     9.036996    9.0369961    18.034735          120    13288.515    74614.745   -24309.661   -32118.832    5842.6252   -17212.534     9.036996    7.8262682    18.034735    21197.866   -2438.2015 
    5290    247.56803    1275.8387    9.0377395    9.0377396    18.036219          120    12012.253    73405.975   -28226.226   -33225.318    7078.3409   -16585.592    9.0377395    7.8269121    18.036219    19064.001   -2438.2815 
    5300    248.21967    1276.1721    9.0385268    9.0385268     18.03779          120    9998.2191    71315.217    -27774.29    -35087.26    7566.7313   -15509.785    9.0385268    7.8275939     18.03779    17846.382   -2438.3316 
    5310      244.654    1276.5228    9.0393546    9.0393547    18.039442          120    10197.505    70166.177   -28198.704   -35063.935    6722.9138    -16017.71    9.0393546    7.8283108    18.039442    17388.326   -2438.3055 
    5320    236.90695    1276.8896    9.0402204    9.0402204     18.04117          120    9828.5081    69232.595   -30702.714   -34666.494    7678.5606   -15730.505    9.0402204    7.8290606     18.04117    16119.463    -2438.219 
    5330    228.89902    1277.2715    9.0411214    9.0411215    18.042968          120    7689.2701    67286.384   -31397.522   -35277.557    10365.429   -14015.249    9.0411214    7.8298409    18.042968    14526.044   -2438.1236 
    5340      224.562    1277.6674    9.0420554    9.0420555    18.044832          120    7174.8129    66871.079   -32039.766   -34250.089    11330.269   -14156.426    9.0420554    7.8306498    18.044832    14002.042   -2438.0754 
    5350    225.22846    1278.0764    9.0430203    9.0430203    18.046757          120    6863.3543    66610.233   -32533.787   -33017.904    10544.682   -15878.052    9.0430203    7.8314854    18.046757      13646.6   -2438.1088 
    5360    229.60778    1278.4978    9.0440139     9.044014     18.04874          120    4359.5313     64973.21   -32440.372    -33513.36    10952.564   -16351.866    9.0440139    7.8323459     18.04874    12297.456   -2438.2005 
    5370    234.80706    1278.9306    9.0450343    9.0450344    18.050777          120     3484.208     64718.61   -34255.403   -32563.565    12416.022   -16290.487    9.0450343    7.8332296    18.050777    11315.805   -2438.3031 
    5380    238.62265    1279.3742      9.04608    9.0460801    18.052863          120    4842.4225    64667.321   -34180.779   -30662.802    11609.101   -17964.981      9.04608    7.8341352    18.052863    11776.321   -2438.3814 
    5390    241.03803    1279.8285    9.0471507    9.0471508       18.055          120    4798.6642    63258.194   -31693.943   -30342.374    9690.6053    -19894.29    9.0471507    7.8350624       18.055    12120.972   -2438.4434 
    5400    243.72608    1280.2936    9.0482465    9.0482465    18.057187          120    5542.8924    62254.738   -33017.489   -29422.706    9932.8073   -20883.164    9.0482465    7.8360114    18.057187     11593.38   -2438.5103 
    5410    247.83348    1280.7696    9.0493676    9.0493677    18.059424          120    7668.0784    61960.739   -34323.087   -27589.284    11517.339   -20716.092    9.0493676    7.8369823    18.059424    11768.577   -2438.5859 
    5420    251.16454    1281.2567    9.0505148    9.0505148    18.061714          120    8946.0912    60722.079    -31373.16    -26968.49    11639.338   -19941.819    9.0505148    7.8379758    18.061714    12765.004   -2438.6837 
    5430    248.21441    1281.7553    9.0516886    9.0516887    18.064056          120     11405.54      59425.8   -31175.226   -25791.262    11287.767   -20348.219    9.0516886    7.8389924    18.064056    13218.704   -2438.6529 
    5440     238.6025    1282.2658    9.0528902    9.0528903    18.066454          120    13548.228     58981.76   -33702.776    -23905.83    13096.312   -19831.763    9.0528902     7.840033    18.066454    12942.404   -2438.5192 
    5450    231.37116    1282.7886    9.0541204    9.0541204    18.068909          120    13465.965    58342.365   -32425.856    -23319.02    14351.246     -17818.5    9.0541204    7.8410983    18.068909    13127.491   -2438.4226 
    5460    232.98385    1283.3237    9.0553791    9.0553792    18.071421          120    13921.885     57791.28    -31792.98   -22411.583     12309.95   -17942.738    9.0553791    7.8421885    18.071421    13306.729   -2438.4743 
    5470    236.58638    1283.8707    9.0566654    9.0566655    18.073988          120    13681.582    56745.162   -33901.662   -21828.304    8424.3504   -19759.721    9.0566654    7.8433024    18.073988    12175.027   -2438.5468 
    5480    236.11577    1284.4284    9.0579768    9.0579768    18.076605          120    10191.005    55032.797   -34681.165   -22537.673    6768.0562   -19700.989    9.0579768    7.8444381    18.076605    10180.879   -2438.5586 
    5490    238.18024    1284.9957    9.0593101    9.0593102    18.079266          120    8262.5337    54255.896   -36383.775   -21830.198    7514.5754    -18299.71    9.0593101    7.8455928    18.079266    8711.5514   -2438.6138 
    5500     248.4463    1285.5709    9.0606615    9.0606616    18.081963          120    7589.2538    52927.464   -38724.682   -21132.048     7682.517    -17095.85    9.0606615    7.8467632    18.081963    7264.0116   -2438.7974 
    5510    260.12575    1286.1518    9.0620261    9.0620262    18.084686          120    3901.7152    49381.597   -39510.985   -22977.754    7386.3872   -15989.412    9.0620261    7.8479449    18.084686    4590.7757    -2438.991 
    5520    264.38919     1286.736     9.063398     9.063398    18.087424          120    1262.8828    45739.251   -42848.235   -24226.175    8571.4656   -14786.045     9.063398     7.849133    18.087424    1384.6329   -2439.0815 
    5530    261.34363    1287.3209     9.064771    9.0647711    18.090164          120    575.37583    43645.771    -46106.02   -23696.011     10854.44   -12971.825     9.064771    7.8503221    18.090164   -628.29113   -2439.0511 
    5540    255.58099    1287.9042      9.06614      9.06614    18.092896          120    -1677.812    40843.013   -45318.785   -24420.839    10917.757   -12074.938      9.06614    7.8515076    18.092896   -2051.1948   -2438.9761 
    5550    249.58128    1288.4839    9.0674999       9.0675     18.09561          120   -4170.7248    38111.178    -47255.17    -25462.74    9233.0677    -13001.45    9.0674999    7.8526854     18.09561    -4438.239   -2438.8941 
    5560    242.82207    1289.0578    9.0688461    9.0688461    18.098297          120   -6159.2197    36623.782   -51265.913   -25604.688    8774.6894   -13425.093    9.0688461    7.8538511    18.098297   -6933.7835   -2438.8002 
    5570    234.90209    1289.6241    9.0701739    9.0701739    18.100946          120   -8910.5216    35607.657   -50739.189    -25910.39    9681.4014   -11855.639    9.0701739    7.8550011    18.100946   -8014.0178   -2438.6922 
    5580    226.82127    1290.1812    9.0714798    9.0714798    18.103553          120   -10611.105    34806.602   -50709.658   -25554.408    9410.6744   -11547.697    9.0714798     7.856132    18.103553   -8838.0538   -2438.5944 
    5590    221.41047    1290.7279    9.0727608    9.0727608    18.106109          120   -11310.432    33657.246   -54007.232   -24797.385    8231.8746   -12948.468    9.0727608    7.8572414    18.106109   -10553.473   -2438.5217 
    5600    220.98989    1291.2628    9.0740141    9.0740141     18.10861          120   -13609.521    32687.999   -54767.831   -24525.814    9132.2999   -12095.037    9.0740141    7.8583268     18.10861   -11896.451   -2438.5324 
    5610    225.34501    1291.7851    9.0752372    9.0752373    18.111051          120   -14540.381    32775.897   -54636.728   -23133.741    11246.664   -9933.4796    9.0752372     7.859386    18.111051   -12133.737   -2438.6168 
    5620      231.946    1292.2938    9.0764283    9.0764283    18.113428          120   -13886.782    32448.005   -57006.247   -21360.008    11900.725   -9423.3427    9.0764283    7.8604175    18.113428   -12815.008   -2438.7482 
    5630    237.42402    1292.7881    9.0775853    9.0775854    18.115737          120   -14907.729    30808.036   -58190.034    -21304.75     11395.39   -9319.7544    9.0775853    7.8614196    18.115737   -14096.576    -2438.851 
    5640    240.05637    1293.2673     9.078707    9.0787071    18.117976          120   -14716.875    30242.251   -58517.038   -20297.983    12071.805   -8128.0729     9.078707     7.862391    18.117976   -14330.554   -2438.9066 
    5650    240.56148    1293.7314    9.0797929    9.0797929    18.120143          120   -12407.996    31552.971   -59612.927   -17665.345    12749.315   -6858.1439    9.0797929    7.8633314    18.120143   -13489.317   -2438.9182 
    5660    239.19752    1294.1805    9.0808433    9.0808433    18.122239          120   -11764.613    31182.787   -59121.046   -17300.819    10573.279   -7105.5065    9.0808433     7.864241    18.122239   -13234.291   -2438.8981 
    5670    234.09402    1294.6148     9.081859    9.0818591    18.124266          120   -11942.538    30738.057    -59522.94   -17514.472    7249.1658   -8521.8096     9.081859    7.8651207    18.124266   -13575.807   -2438.8473 
    5680    225.65199    1295.0349    9.0828411    9.0828412    18.126226          120   -11002.684    32785.359   -60661.471   -15977.843    5777.3374   -8798.2347    9.0828411    7.8659712    18.126226   -12959.599   -2438.7391 
    5690    216.82407    1295.4411    9.0837907    9.0837907    18.128121          120   -11652.477    34850.573   -58539.784   -15013.592    6634.4183   -7029.6228    9.0837907    7.8667936    18.128121   -11780.562   -2438.6229 
    5700    209.27791     1295.834    9.0847089     9.084709    18.129953          120   -12905.209    36026.155   -58143.952   -14620.442    6908.8228   -6112.1881    9.0847089    7.8675888    18.129953   -11674.335   -2438.5323 
    5710    204.35334    1296.2139    9.0855967    9.0855967    18.131725          120    -12937.81    36551.873   -60794.472   -14062.393    6398.3193   -6205.7604    9.0855967    7.8683576    18.131725    -12393.47   -2438.4742 
    5720    205.57235    1296.5807    9.0864537    9.0864537    18.133435          120   -14417.731    35706.968   -59180.735   -14802.603    6895.0182   -5321.3036    9.0864537    7.8690998    18.133435     -12630.5   -2438.5281 
    5730    211.15012    1296.9341    9.0872791    9.0872792    18.135083          120   -15339.893    34530.763    -56805.64    -15449.54    7966.4276    -4282.163    9.0872791    7.8698147    18.135083   -12538.256   -2438.6549 
    5740    214.15606    1297.2735    9.0880718    9.0880719    18.136665          120   -15008.814    33497.422   -58267.497    -15448.76    7496.7832   -5451.6108    9.0880718    7.8705012    18.136665   -13259.629   -2438.7221 
    5750    212.20686    1297.5984    9.0888304    9.0888305    18.138179          120   -16486.435    30836.261   -57858.453   -17224.666    5273.4763   -7558.1349    9.0888304    7.8711581    18.138179   -14502.876   -2438.7162 
    5760    209.45794    1297.9082    9.0895535    9.0895536    18.139622          120   -17987.115    29777.062   -56299.885   -18252.007     4351.084   -8181.4735    9.0895535    7.8717844    18.139622   -14836.646   -2438.6745 
    5770    208.93871    1298.2022    9.0902399      9.09024    18.140991          120   -18832.386    31020.944   -56829.687   -17451.577    5346.4633   -7701.7593    9.0902399    7.8723788    18.140991   -14880.377   -2438.6904 
    5780    208.49526      1298.48    9.0908882    9.0908883    18.142285          120   -21801.436    30872.951   -56577.448   -18412.587    5735.0678   -7433.2941    9.0908882    7.8729402    18.142285   -15835.311   -2438.7071 
    5790    205.18036    1298.7408    9.0914969     9.091497      18.1435          120   -24195.517    30663.172   -56734.809   -19404.197    4676.0089   -8124.7006    9.0914969    7.8734674      18.1435   -16755.718   -2438.6639 
    5800    199.67136    1298.9844    9.0920652    9.0920653    18.144634          120   -23799.652    32415.977   -57617.879   -18321.285    5098.4996   -7675.6559    9.0920652    7.8739595    18.144634   -16333.851    -2438.595 
    5810    194.98145    1299.2107    9.0925932    9.0925933    18.145688          120   -24686.844    33609.844   -55887.295   -18392.345    6736.2625   -5546.3333    9.0925932    7.8744168    18.145688   -15654.765   -2438.5466 
    5820    193.80158      1299.42    9.0930815    9.0930816    18.146662          120   -25708.514    33489.555   -55507.601   -19451.333    6988.5602   -5022.4798    9.0930815    7.8748397    18.146662   -15908.854   -2438.5419 
    5830    196.40785    1299.6127    9.0935308    9.0935309    18.147559          120   -24042.478    33671.992   -57308.047   -19285.295    6025.6246   -6110.9001    9.0935308    7.8752288    18.147559   -15892.844   -2438.5942 
    5840    199.96915     1299.789    9.0939421    9.0939422     18.14838          120   -22773.417    33786.167   -54951.533   -19426.317    5690.0287   -6003.9851    9.0939421     7.875585     18.14838   -14646.261   -2438.6664 
    5850    201.58425    1299.9498     9.094317    9.0943171    18.149128          120   -21659.261    33770.863    -52710.88   -19618.887    6506.5947   -4996.3911     9.094317    7.8759097    18.149128   -13533.093   -2438.7082 
    5860    202.11071    1300.0959    9.0946578    9.0946579    18.149808          120    -19379.64    34616.054   -54808.389   -18713.015    6229.1583   -5829.5715    9.0946578    7.8762048    18.149808   -13190.658     -2438.72 
    5870    205.06423    1300.2285    9.0949668    9.0949669    18.150425          120   -18275.974    34750.733   -53695.848   -18347.068    5210.5496   -7248.6234    9.0949668    7.8764724    18.150425    -12407.03   -2438.7942 
    5880    211.75988    1300.3482    9.0952461    9.0952462    18.150982          120    -18006.04    35473.034   -50339.812   -17811.414    6285.2813   -6797.2577    9.0952461    7.8767143    18.150982   -10957.606   -2438.9154 
    5890    216.81961    1300.4562    9.0954978    9.0954979    18.151484          120   -17340.018    37598.036   -51008.664    -16099.36     9364.941   -5554.6495    9.0954978    7.8769322    18.151484   -10250.215   -2438.9973 
    5900     212.7454    1300.5531    9.0957237    9.0957237    18.151935          120   -17853.531    38444.997   -50918.963    -15605.42    11103.473   -5296.3228    9.0957237    7.8771278    18.151935   -10109.166   -2438.9423 
    5910    201.37556    1300.6397    9.0959257    9.0959258    18.152338          120   -17699.383    38932.786   -48776.076   -15173.254    10596.993   -5900.6309    9.0959257    7.8773028    18.152338   -9180.8913   -2438.7922 
    5920    193.51389    1300.7171    9.0961059     9.096106    18.152698          120   -15463.507    39898.158   -48309.403   -13565.791    11070.913   -6221.7161    9.0961059    7.8774589    18.152698   -7958.2509   -2438.6911 
    5930    192.30748    1300.7857    9.0962658    9.0962659    18.153017          120   -15331.865    38758.155   -47135.655   -14085.401    11665.924   -6182.1738    9.0962658    7.8775974    18.153017   -7903.1216   -2438.6828 
    5940    189.91292    1300.8457    9.0964057    9.0964058    18.153296          120   -15590.051    35877.735   -46380.166   -15870.319    10489.398   -6907.0393    9.0964057    7.8777185    18.153296   -8697.4943    -2438.676 
    5950    184.97945    1300.8969    9.0965252    9.0965253    18.153535          120   -13308.165    34334.362   -47301.745   -15713.605    8239.1047   -8500.0909    9.0965252     7.877822    18.153535   -8758.5161   -2438.6124 
    5960    184.11393    1300.9394    9.0966242    9.0966242    18.153732          120   -13000.304    33086.745   -45263.695   -16224.887     7069.072   -8159.9341    9.0966242    7.8779077    18.153732   -8392.4179   -2438.6223 
    5970    188.57976    1300.9727    9.0967019    9.0967019    18.153887          120   -15490.531    31480.597   -43135.326   -18090.714    7952.1538   -6008.8976    9.0967019     7.877975    18.153887   -9048.4201   -2438.7119 
    5980    191.75183    1300.9964     9.096757    9.0967571    18.153997          120   -17263.385    30626.701   -44700.038   -18970.443    8667.1166    -4951.586     9.096757    7.8780228    18.153997   -10445.574   -2438.7966 
    5990    189.77352    1301.0097     9.096788     9.096788    18.154059          120   -18440.012    29583.384   -43176.026   -19893.322    7004.3424   -4978.5671     9.096788    7.8780495    18.154059   -10677.551   -2438.7815 
    6000    184.94746    1301.0122    9.0967939     9.096794    18.154071          120   -19496.744    28729.822   -39497.007   -20684.344    5418.7203   -4668.5128    9.0967939    7.8780547    18.154071   -10087.977   -2438.7251 
    6010     181.7001     1301.004    9.0967748    9.0967749    18.154033          120   -19495.141    28514.881   -39796.001   -20579.749    6051.0006   -3736.8046    9.0967748    7.8780382    18.154033   -10258.754   -2438.6854 
    6020    181.43041    1300.9852    9.0967309    9.0967309    18.153945          120   -20162.881    27429.959   -39414.127   -21269.365    5378.9819   -3983.2106    9.0967309    7.8780001    18.153945   -10715.683   -2438.6997 
    6030    183.23691    1300.9558    9.0966624    9.0966624    18.153808          120   -20178.733    26253.471   -36119.276   -21943.949    2827.8279   -5518.0973    9.0966624    7.8779408    18.153808   -10014.846   -2438.7316 
    6040    185.66548    1300.9162    9.0965702    9.0965703    18.153624          120   -18192.528    26274.554   -35217.267   -21129.296    1829.6541   -6375.4454    9.0965702     7.877861    18.153624   -9045.0802   -2438.7838 
    6050    188.26246    1300.8671    9.0964556    9.0964557    18.153396          120    -17747.07    25930.343   -35002.471   -21109.459    2908.3226   -5842.9057    9.0964556    7.8777617    18.153396   -8939.7325   -2438.8521 
    6060    191.78316    1300.8089      9.09632    9.0963201    18.153125          120   -17747.052    25232.703    -33273.07   -21432.304    3337.5935   -5863.6213      9.09632    7.8776443    18.153125   -8595.8062   -2438.9243 
    6070    196.92694    1300.7425    9.0961652    9.0961653    18.152816          120    -15459.15    26359.307   -32472.785   -19623.468    3059.5474   -7056.7154    9.0961652    7.8775102    18.152816   -7190.8762   -2439.0137 
    6080    202.36202    1300.6687    9.0959933    9.0959934    18.152473          120   -14489.809    27479.787   -31099.678   -18264.844    4369.8969   -7106.8294    9.0959933    7.8773614    18.152473   -6036.5668   -2439.1131 
    6090     206.3467    1300.5886    9.0958065    9.0958065      18.1521          120    -15678.01    28062.804   -29709.184   -18152.888    6872.3276   -6139.8866    9.0958065    7.8771995      18.1521   -5774.7967   -2439.1909 
    6100     208.0509    1300.5029    9.0956067    9.0956068    18.151702          120   -14699.166    30112.908   -30503.731   -16266.995    8177.4269   -6587.8117    9.0956067    7.8770265    18.151702   -5029.9963   -2439.2336 
    6110    207.41872    1300.4126    9.0953962    9.0953963    18.151282          120   -12661.393    31965.962   -29544.828   -14273.534    7016.4538   -8416.8325    9.0953962    7.8768443    18.151282   -3413.4197   -2439.2305 
    6120    204.53527    1300.3188    9.0951774    9.0951775    18.150845          120   -12292.624    32785.933   -28112.194    -13508.07    6136.9578   -9763.3587    9.0951774    7.8766548    18.150845   -2539.6285   -2439.2052 
    6130    200.06452    1300.2222    9.0949523    9.0949524    18.150396          120   -11185.252    33668.814   -30631.164   -12114.791    7109.9572   -10704.727    9.0949523    7.8764598    18.150396   -2715.8675   -2439.1561 
    6140    196.67276    1300.1234    9.0947219     9.094722    18.149936          120   -9928.3299    33701.746   -31523.335   -11439.447    6712.0962   -11551.366    9.0947219    7.8762603    18.149936   -2583.3063   -2439.1037 
    6150    196.53686    1300.0225    9.0944866    9.0944867    18.149466          120   -9431.3721     32743.62   -29725.561   -11704.553    5180.2853   -12148.477    9.0944866    7.8760565    18.149466   -2137.7711   -2439.1227 
    6160     197.1704    1299.9193     9.094246    9.0942461    18.148986          120   -8302.7477    32504.108   -31825.068   -10975.555     5667.186   -12117.145     9.094246    7.8758482    18.148986   -2541.2359   -2439.1486 
    6170      196.717    1299.8134     9.093999    9.0939991    18.148493          120   -9395.3949    31869.443   -34339.542   -11322.517    7972.9164    -10733.84     9.093999    7.8756343    18.148493   -3955.1647   -2439.1594 
    6180    198.89782     1299.704    9.0937437    9.0937438    18.147984          120   -12169.563    30563.979    -33888.04    -12838.72    8466.6003   -10216.094    9.0937437    7.8754132    18.147984   -5164.5413   -2439.2225 
    6190     203.9295    1299.5898    9.0934774    9.0934775    18.147452          120   -13093.708    30726.371   -35234.481   -12786.316     6523.539   -11610.131    9.0934774    7.8751825    18.147452   -5867.2726   -2439.3176 
    6200    205.13623    1299.4696     9.093197    9.0931971    18.146893          120   -15043.673    30310.638   -36990.975    -13298.76     4372.485   -13214.072     9.093197    7.8749397    18.146893   -7241.3368   -2439.3528 
    6210    199.83859    1299.3419    9.0928992    9.0928993    18.146298          120   -18894.222    28918.569    -37748.28   -14910.206    4094.7997    -13763.61    9.0928992    7.8746818    18.146298   -9241.3109    -2439.294 
    6220    192.00833    1299.2054    9.0925807    9.0925808    18.145663          120   -19645.966    28109.262   -39811.215   -14807.715    3954.5219   -14576.334    9.0925807     7.874406    18.145663   -10449.306   -2439.1954 
    6230    185.97868    1299.0588    9.0922387    9.0922388     18.14498          120   -19696.309    26800.785   -40043.638   -14821.766    2283.3711   -16137.317    9.0922387    7.8741098     18.14498    -10979.72   -2439.1284 
    6240    182.14588    1298.9009    9.0918704    9.0918705    18.144245          120   -21655.996    24512.773   -39533.397   -16199.817    1638.4851   -16817.194    9.0918704    7.8737908    18.144245    -12225.54   -2439.0962 
    6250    178.54582    1298.7307    9.0914733    9.0914734    18.143453          120   -21987.385    23238.463   -42395.091   -16353.802     3480.583   -16350.977    9.0914733    7.8734469    18.143453   -13714.671   -2439.0658 
    6260    173.96574    1298.5473    9.0910452    9.0910453    18.142599          120   -21284.146    22684.419   -43058.802   -15874.634    4902.5858   -15831.387    9.0910452    7.8730762    18.142599   -13886.176   -2439.0071 
    6270    170.43409    1298.3502    9.0905853    9.0905854    18.141681          120   -21040.712    21502.112   -40913.443   -16240.363    4056.8908    -16268.78    9.0905853    7.8726779    18.141681   -13484.014   -2438.9651 
    6280    171.00144    1298.1394    9.0900932    9.0900933    18.140699          120   -20255.879    21103.175   -42805.104   -15879.885    3951.8629   -16770.281    9.0900932    7.8722518    18.140699   -13985.936   -2438.9979 
    6290    176.65259    1297.9147    9.0895689     9.089569    18.139652          120   -19901.055    21376.537   -44709.433     -15486.1    5033.5396   -15999.248    9.0895689    7.8717977    18.139652   -14411.317   -2439.1118 
    6300    184.77561    1297.6763    9.0890124    9.0890124    18.138542          120   -19853.566     21506.77    -42299.96   -15721.882    4375.6265   -15317.165    9.0890124    7.8713157    18.138542   -13548.919   -2439.2479 
    6310    190.70329    1297.4246    9.0884245    9.0884246    18.137369          120     -17925.4    22292.054   -42172.434   -14918.155    2250.0054   -16227.375    9.0884245    7.8708066    18.137369   -12601.927    -2439.363 
    6320    191.48107    1297.1602    9.0878071    9.0878072    18.136136          120   -16269.154     23253.58   -43600.814   -14235.644    1137.8069   -16724.357    9.0878071    7.8702719    18.136136   -12205.463   -2439.3873 
    6330    188.95642    1296.8841    9.0871624    9.0871625     18.13485          120   -15932.792     24305.46   -41814.988   -14246.632      2063.65   -15275.918    9.0871624    7.8697136     18.13485    -11147.44   -2439.3628 
    6340    186.47655    1296.5978    9.0864935    9.0864936    18.133515          120   -13108.222    26089.951   -40499.552   -13086.486    2486.5998   -14097.291    9.0864935    7.8691343    18.133515   -9172.6073   -2439.3427 
    6350    183.71541    1296.3025    9.0858037    9.0858038    18.132138          120   -10409.046    27373.056    -40180.73    -12539.74     1947.447   -13611.151    9.0858037    7.8685369    18.132138   -7738.9067   -2439.3139 
    6360    176.81745    1295.9997    9.0850962    9.0850963    18.130726          120   -10075.432    27423.181   -38798.704   -13604.854    2752.9243   -12339.765    9.0850962    7.8679242    18.130726   -7150.3184   -2439.2342 
    6370    166.52117    1295.6906    9.0843738    9.0843739    18.129285          120   -7849.0408    28413.422   -38798.999   -13163.996     4729.826   -10587.688    9.0843738    7.8672986    18.129285   -6078.2061   -2439.0986 
    6380     160.6473    1295.3764    9.0836395    9.0836395    18.127819          120   -5557.7451    30007.254   -37976.294   -12308.736     4980.624   -10050.621    9.0836395    7.8666626    18.127819   -4508.9286   -2439.0238 
    6390    163.92534     1295.058    9.0828952    9.0828953    18.126334          120   -6659.3607    30051.657   -35289.483   -13768.507    2812.3772   -11245.751    9.0828952    7.8660181    18.126334   -3965.7289   -2439.0851 
    6400    171.36124     1294.736    9.0821423    9.0821423    18.124831          120   -8373.8489    30627.442   -36231.318   -15096.828    970.39692   -12725.666    9.0821423     7.865366    18.124831   -4659.2417   -2439.2135 
    6410    178.06765    1294.4102    9.0813804    9.0813805    18.123311          120   -9733.2481    31925.421   -37274.712   -15650.702     1310.387   -12979.425    9.0813804    7.8647062    18.123311   -5027.5132   -2439.3402 
    6420    183.73395    1294.0804    9.0806092    9.0806093    18.121772          120   -12109.351    32723.659   -34673.974   -16828.457    2482.5823   -12259.096    9.0806092    7.8640383    18.121772    -4686.555   -2439.4376 
    6430    188.29985    1293.7464     9.079828     9.079828    18.120213          120   -13581.118    33258.544   -35155.179   -17777.186    2235.0821   -12775.345     9.079828    7.8633618    18.120213    -5159.251   -2439.5368 
    6440      190.179    1293.4077    9.0790354    9.0790355    18.118631          120   -15103.674    33475.584   -37577.263   -19028.299    2495.6745   -13200.891    9.0790354    7.8626754    18.118631    -6401.784   -2439.5782 
    6450    189.01058    1293.0636    9.0782302    9.0782302    18.117024          120   -17544.898    33517.339   -36743.567   -20785.268     4412.707    -11697.82    9.0782302     7.861978    18.117024   -6923.7086    -2439.585 
    6460    185.09473    1292.7136     9.077411    9.0774111    18.115389          120   -17625.405    34382.095   -36568.281   -21208.639    5762.6957   -10644.377     9.077411    7.8612686    18.115389   -6603.8636   -2439.5421 
    6470    179.58156    1292.3574    9.0765772    9.0765773    18.113725          120   -17330.381    34578.215    -37982.02   -21751.552    5076.5924    -11548.86    9.0765772    7.8605465    18.113725   -6911.3953    -2439.481 
    6480    173.89132    1291.9948    9.0757284    9.0757284    18.112031          120   -18432.647    33715.635   -37885.267   -23572.282    4344.5198   -11902.457    9.0757284    7.8598114    18.112031   -7534.0928    -2439.406 
    6490    169.40933    1291.6259    9.0748645    9.0748645    18.110307          120   -18239.274    34966.008   -38333.614   -23567.052    4836.8786    -10995.76    9.0748645    7.8590632    18.110307   -7202.2934   -2439.3817 
    6500    166.73561    1291.2508    9.0739858    9.0739858    18.108554          120   -17183.318    36987.593   -38736.956   -22917.485    4895.3124   -10515.936    9.0739858    7.8583023    18.108554   -6310.8934   -2439.3569 
    6510    166.39572    1290.8697    9.0730932    9.0730932    18.106772          120    -18037.48    37170.583   -37835.438     -24143.2    4039.9402   -10756.585    9.0730932    7.8575293    18.106772   -6234.1118   -2439.3643 
    6520    167.60755    1290.4833    9.0721877    9.0721878    18.104965          120   -18032.448    38536.527   -38673.659   -24354.968     3837.019   -10906.344    9.0721877    7.8567451    18.104965   -6056.5267   -2439.3991 
    6530    169.29946    1290.0921     9.071271     9.071271    18.103136          120   -16071.129    41655.319   -39412.837   -22855.093    5382.0173   -9426.9579     9.071271    7.8559512    18.103136    -4609.549   -2439.4385 
    6540    170.54486    1289.6972    9.0703453    9.0703453    18.101288          120    -15187.69    43714.228   -37685.903   -22528.802    6977.6094   -7589.6242    9.0703453    7.8551495    18.101288   -3053.1215   -2439.4688 
    6550    171.68919    1289.2998    9.0694135    9.0694135    18.099429          120   -13708.137    45025.708   -38362.531   -22351.964    6857.2247   -7464.1009    9.0694135    7.8543425    18.099429   -2348.3201   -2439.5028 
    6560    174.02059    1288.9011    9.0684786    9.0684786    18.097563          120   -10780.595    46423.991    -39611.91    -21273.67    7079.0394   -7303.0861    9.0684786    7.8535329    18.097563   -1322.8378   -2439.5685 
    6570    177.38722    1288.5025    9.0675435    9.0675436    18.095697          120   -8194.3984    46981.624   -36675.176   -20650.446    8654.7342   -5911.8581    9.0675435    7.8527231    18.095697    704.01656   -2439.6333 
    6580    178.50608    1288.1053    9.0666118    9.0666119    18.093838          120   -4936.3093    47481.343   -35352.489   -19658.876    8883.4856    -5846.059    9.0666118    7.8519163    18.093838    2397.5149   -2439.6592 
    6590    175.40811    1287.7112     9.065687    9.0656871    18.091992          120   -1848.3899     47760.86   -36126.632   -18742.211    7098.5485   -7922.8091     9.065687    7.8511154    18.091992    3261.9461   -2439.6397 
    6600     171.3811    1287.3216    9.0647726    9.0647726    18.090167          120   -487.40933    47589.691   -33410.693   -18849.223    6231.6129   -8602.3455    9.0647726    7.8503234    18.090167    4563.8631   -2439.5877 
    6610    171.05456    1286.9378    9.0638717    9.0638718     18.08837          120    863.81039    49305.331    -31097.69   -17891.624    7118.8734   -7612.9185    9.0638717    7.8495432     18.08837    6357.1504   -2439.5981 
    6620    173.20071    1286.5611    9.0629872    9.0629873    18.086604          120    1791.3454    51439.316   -31309.799   -16691.453    7929.6548    -7047.901    9.0629872    7.8487773    18.086604    7306.9541   -2439.6519 
    6630    173.32195    1286.1923    9.0621212    9.0621212    18.084876          120    470.14955    51668.307   -30054.202   -17542.462     7482.072   -6606.1544    9.0621212    7.8480272    18.084876    7361.4181   -2439.6615 
    6640    172.39947     1285.832     9.061275    9.0612751    18.083187          120    174.37998    52209.549   -29105.604   -17832.768    6494.9211   -6036.4672     9.061275    7.8472944    18.083187    7759.4416   -2439.6707 
    6650    175.11763    1285.4808    9.0604498    9.0604499    18.081541          120    1355.3612     53187.23   -28622.234   -17228.319    6415.9417   -4645.1505    9.0604498    7.8465798    18.081541    8640.1193   -2439.7267 
    6660    179.92883    1285.1388    9.0596462    9.0596463    18.079937          120    587.85918     51880.29   -26494.574   -18730.005    5639.7296   -3411.6225    9.0596462    7.8458838    18.079937    8657.8584   -2439.8206 
    6670    180.62479    1284.8059     9.058864    9.0588641    18.078376          120    190.16944    49690.669   -26282.376   -20441.482    2787.7621   -4340.4802     9.058864    7.8452064    18.078376    7866.1543   -2439.8607 
    6680    175.23554     1284.482    9.0581028    9.0581028    18.076857          120    1000.5132    48970.851   -26533.614   -20773.401   -497.44513   -5692.9577    9.0581028    7.8445472    18.076857    7812.5834    -2439.805 
    6690    167.94242    1284.1671    9.0573623    9.0573624    18.075379          120    609.60038    48482.422    -23852.98   -21487.023   -1684.6544   -4676.6471    9.0573623    7.8439059    18.075379    8413.0141   -2439.7145 
    6700    163.01994    1283.8609    9.0566425    9.0566426    18.073942          120   -219.49096     48029.38   -23539.649   -22180.711     -2293.94   -3912.3712    9.0566425    7.8432826    18.073942    8090.0801   -2439.6542 
    6710    161.28091    1283.5634    9.0559428    9.0559429    18.072546          120   -994.99282    47783.534   -25518.238   -22551.529   -3882.3687    -4912.614    9.0559428    7.8426766    18.072546    7090.1009   -2439.6468 
    6720     160.4166     1283.274    9.0552623    9.0552624    18.071188          120   -2465.6681    47219.503   -23638.791   -23272.124   -4715.3292   -5027.5495    9.0552623    7.8420873    18.071188    7038.3479   -2439.6383 
    6730    158.73615    1282.9925    9.0546001    9.0546002    18.069867          120   -3223.5213    47595.132   -22284.539   -23054.025   -3939.4116   -3927.6045    9.0546001    7.8415138    18.069867    7362.3574   -2439.6318 
    6740    157.37682    1282.7187    9.0539558    9.0539559    18.068581          120   -3255.6169    48087.382   -24472.856   -22334.461   -3264.6007   -3492.1974    9.0539558    7.8409558    18.068581    6786.3031   -2439.6295 
    6750    158.89199    1282.4522    9.0533288    9.0533289     18.06733          120   -4330.3901    47093.476   -24287.491   -22848.533   -4293.2955   -4591.9284    9.0533288    7.8404128     18.06733    6158.5315   -2439.6641 
    6760    163.81103    1282.1929    9.0527186    9.0527186    18.066112          120   -4198.5066    46503.807   -22822.983   -22604.234   -5151.0378   -5679.1589    9.0527186    7.8398843    18.066112    6494.1056   -2439.7467 
    6770    169.73963    1281.9406    9.0521248    9.0521249    18.064927          120    -2655.661    46718.952   -23736.639    -21343.16   -4366.5063   -5992.7358    9.0521248    7.8393701    18.064927    6775.5506   -2439.8454 
    6780    172.75622    1281.6953    9.0515475    9.0515475    18.063775          120   -2493.1553     45544.68   -24213.647   -21547.808   -3969.7451   -6543.9694    9.0515475    7.8388701    18.063775    6279.2928   -2439.9184 
    6790    171.18528     1281.457    9.0509865    9.0509865    18.062655          120   -1291.5694     44559.62   -24334.711   -21297.197   -4808.2956   -8126.5367    9.0509865    7.8383843    18.062655     6311.113   -2439.9157 
    6800     167.4894     1281.226    9.0504424    9.0504424    18.061569          120    1555.1947    45681.083   -25176.576   -19319.244   -4611.6079   -9029.4494    9.0504424    7.8379131    18.061569    7353.2341   -2439.8732 
    6810    164.90555    1281.0026    9.0499163    9.0499164    18.060519          120    2303.2906    46322.339   -24672.299   -18738.323   -2195.4616   -7578.7574    9.0499163    7.8374575    18.060519    7984.4436   -2439.8467 
    6820     162.7609    1280.7873    9.0494093    9.0494093    18.059507          120    1931.4113    46699.837   -25508.295   -18926.197    219.56229   -6400.0639    9.0494093    7.8370184    18.059507    7707.6513   -2439.8332 
    6830    158.88647    1280.5803    9.0489219     9.048922    18.058535          120    2848.6826    48467.838   -27592.802    -17965.35    1133.3902   -6619.7904    9.0489219    7.8365964    18.058535    7907.9062   -2439.7916 
    6840    154.25888    1280.3821    9.0484551    9.0484551    18.057603          120    3230.4019    49746.629   -26178.842   -17738.987    998.15365   -6440.6242    9.0484551     7.836192    18.057603    8932.7296   -2439.7261 
    6850    152.44522    1280.1931    9.0480096    9.0480097    18.056714          120    2998.3514    50427.561   -25551.562   -18024.695     1647.664   -5605.1821    9.0480096    7.8358063    18.056714    9291.4503   -2439.7111 
    6860    153.95854    1280.0133    9.0475861    9.0475862    18.055869          120    3673.9512    50843.222   -28416.019   -18105.148    2124.0981   -5473.8547    9.0475861    7.8354395    18.055869    8700.3845    -2439.735 
    6870    156.33145    1279.8428    9.0471845    9.0471846    18.055068          120    3797.7558    49887.971    -28491.87     -19278.5    411.68582   -6574.1034    9.0471845    7.8350917    18.055068     8397.952   -2439.7984 
    6880    157.36957    1279.6815    9.0468042    9.0468043    18.054309          120    4535.3845    49104.014   -26923.347    -20300.28   -1032.3762   -7274.2362    9.0468042    7.8347623    18.054309    8905.3506   -2439.8087 
    6890    156.90698    1279.5291     9.046445    9.0464451    18.053592          120    5649.1368    49177.365   -28237.835   -20590.788   -67.866026   -6039.3056     9.046445    7.8344513    18.053592    8862.8887   -2439.8053 
    6900    155.03126    1279.3855    9.0461067    9.0461068    18.052917          120    4695.9589    47968.139    -28325.87   -22277.738    1342.0653   -4557.6356    9.0461067    7.8341583    18.052917    8112.7427   -2439.7892 
    6910    152.46882    1279.2506    9.0457887    9.0457888    18.052282          120    3826.6067    47393.584   -27283.315   -23444.076    1226.0719   -4835.9386    9.0457887    7.8338829    18.052282    7978.9585   -2439.7644 
    6920    150.14873    1279.1242    9.0454908    9.0454908    18.051688          120    4048.2857    48667.282   -27356.117   -23043.481    1279.1848   -5137.2673    9.0454908    7.8336249    18.051688    8453.1502   -2439.7355 
    6930    148.64806    1279.0062    9.0452126    9.0452127    18.051132          120    2361.3164    48606.182   -26327.103   -24117.043    2061.4314   -4607.8761    9.0452126     7.833384    18.051132    8213.4653   -2439.7185 
    6940    147.61206    1278.8964    9.0449539    9.0449539    18.050616          120    297.61059    48360.784   -25996.302   -25408.441    2380.3118   -4634.0425    9.0449539    7.8331599    18.050616    7554.0311   -2439.7214 
    6950    146.93455    1278.7948    9.0447142    9.0447143    18.050138          120    987.20859    49701.465   -27139.762   -24607.041    1458.9093   -6060.0698    9.0447142    7.8329523    18.050138    7849.6371   -2439.7174 
    6960    146.54407    1278.7012    9.0444937    9.0444938    18.049698          120    1378.6056    50256.552   -26176.166   -24383.728   -23.236563   -7747.7168    9.0444937    7.8327614    18.049698    8486.3304   -2439.7176 
    6970    147.46696     1278.616    9.0442927    9.0442928    18.049297          120    541.15246    49746.958   -25595.106    -25171.26    220.82612   -8045.4328    9.0442927    7.8325873    18.049297    8231.0016   -2439.7488 
    6980    150.63193    1278.5391    9.0441114    9.0441115    18.048935          120    1325.7094    49893.085   -27417.261   -24761.697    1191.6681    -7973.932    9.0441114    7.8324303    18.048935    7933.8445   -2439.8036 
    6990    155.38921    1278.4706    9.0439499      9.04395    18.048612          120    2721.7629    49541.201   -26628.617   -24220.298    338.19476   -8797.3898    9.0439499    7.8322905    18.048612    8544.7822   -2439.8953 
    7000    159.34448    1278.4107    9.0438087    9.0438088    18.048331          120    3761.4637    48724.141   -25131.195   -23894.365    39.468113   -9078.8557    9.0438087    7.8321682    18.048331    9118.1366   -2439.9746 
    7010    160.81018    1278.3597    9.0436884    9.0436884    18.048091          120    4677.3109     48779.58   -26594.966   -22948.607    2436.7676    -7532.616    9.0436884     7.832064    18.048091     8953.975   -2440.0157 
    7020    159.74064    1278.3178    9.0435896    9.0435896    18.047893          120    5152.8631     48447.52   -26154.281   -22355.627    3917.8246    -6430.401    9.0435896    7.8319784    18.047893    9148.7007    -2440.037 
    7030    158.25077    1278.2854    9.0435132    9.0435133    18.047741          120    6216.5725    48663.232   -24351.348   -21380.026    3099.5738   -7292.5478    9.0435132    7.8319123    18.047741    10176.152   -2440.0327 
    7040    157.19817    1278.2631    9.0434604    9.0434605    18.047636          120    7630.7453    50061.536   -25774.764    -19752.24    3107.5248   -7648.0148    9.0434604    7.8318666    18.047636    10639.173   -2440.0301 
    7050     153.8314     1278.251     9.043432    9.0434321    18.047579          120     7277.193    50471.133   -26674.772   -19420.846    3448.8275   -7453.8031     9.043432    7.8318419    18.047579    10357.851   -2439.9862 
    7060    145.91692    1278.2495    9.0434286    9.0434286    18.047572          120    6944.1911    50907.537   -26027.928     -18932.7    2755.8353   -8025.0988    9.0434286     7.831839    18.047572    10607.934   -2439.8731 
    7070     138.0207    1278.2589    9.0434507    9.0434507    18.047616          120    9050.4855    52207.694   -27393.741   -16829.937    1577.2908   -9039.9525    9.0434507    7.8318581    18.047616    11288.146   -2439.7654 
    7080    136.57899    1278.2792    9.0434985    9.0434985    18.047712          120    9428.3552    51580.086   -28006.412   -16477.559    558.00095   -9452.0964    9.0434985    7.8318995    18.047712    11000.677   -2439.7495 
    7090    140.28813      1278.31    9.0435713    9.0435713    18.047857          120    7672.6464    48973.101   -27436.825   -17974.867    1108.6235   -8499.4821    9.0435713    7.8319625    18.047857    9736.3074   -2439.8177 
    7100     142.5424    1278.3508    9.0436673    9.0436674    18.048049          120     7612.249    47287.378   -28094.132   -18052.817    2516.9006   -6971.9868    9.0436673    7.8320457    18.048049    8935.1651   -2439.8583 
    7110    142.13906    1278.4006    9.0437848    9.0437848    18.048283          120    7466.4246    46073.007   -27618.856   -17727.561    1872.7528   -7386.5654    9.0437848    7.8321474    18.048283     8640.192   -2439.8588 
    7120    142.97571    1278.4586    9.0439216    9.0439217    18.048556          120    5705.2409    44398.454   -27644.675   -18314.345    282.94854   -8723.9407    9.0439216    7.8322659    18.048556      7486.34   -2439.8778 
    7130     145.8112    1278.5237    9.0440752    9.0440752    18.048862          120    3373.9721    43485.859   -30137.944   -18798.139    569.64396     -8427.74    9.0440752    7.8323989    18.048862    5573.9624   -2439.9338 
    7140    146.40427    1278.5946    9.0442423    9.0442424    18.049196          120    937.01802    42960.287   -30429.339   -19363.641    60.125515   -8809.4327    9.0442423    7.8325437    18.049196     4489.322   -2439.9422 
    7150    142.22032    1278.6701    9.0444202    9.0444202    18.049551          120   -829.90462    42791.115   -29782.201    -19551.72    -2169.902    -10708.89    9.0444202    7.8326977    18.049551    4059.6698    -2439.891 
    7160    135.46081    1278.7491    9.0446065    9.0446066    18.049923          120    -1554.177    43081.926   -32485.976   -19101.243   -2896.0803   -11784.749    9.0446065    7.8328591    18.049923    3013.9242   -2439.8063 
    7170     130.4254    1278.8309    9.0447993    9.0447994    18.050308          120   -3462.0879     42289.46    -33530.64   -19692.795   -2127.2819   -11505.343    9.0447993     7.833026    18.050308    1765.5776    -2439.747 
    7180    129.36513    1278.9146    9.0449967    9.0449968    18.050702          120   -5001.8121    40843.935   -31582.728   -20438.717   -1916.5517   -11097.271    9.0449967     7.833197    18.050702    1419.7983   -2439.7366 
    7190    131.04332    1278.9997    9.0451973    9.0451973    18.051102          120    -4020.519    40131.001   -32442.565   -19647.304   -1815.3528   -11114.831    9.0451973    7.8333707    18.051102    1222.6391   -2439.7728 
    7200     132.6816    1279.0855    9.0453995    9.0453996    18.051505          120    -3851.526    38737.185   -33929.861   -19582.169   -1410.9044   -11077.861    9.0453995    7.8335459    18.051505     318.5994   -2439.8158 
    7210    133.61779    1279.1715    9.0456024    9.0456025     18.05191          120   -4503.4083    36762.659   -32977.369   -20361.175   -459.47867   -10397.558    9.0456024    7.8337215     18.05191   -239.37286   -2439.8415 
    7220    135.28758    1279.2576    9.0458052    9.0458052    18.052315          120   -3111.6211    36697.945    -33013.88   -19413.033    903.14475   -9445.4746    9.0458052    7.8338971    18.052315    190.81441   -2439.8838 
    7230    138.91736    1279.3435    9.0460078    9.0460079    18.052719          120   -1442.3827    37045.092   -34223.638   -18384.226    529.94848    -10090.52    9.0460078    7.8340726    18.052719    459.69057   -2439.9349 
    7240    143.48979    1279.4295    9.0462104    9.0462104    18.053124          120   -1497.7979    36692.169   -35530.834   -18579.018   -325.75235    -11000.85    9.0462104    7.8342481    18.053124   -112.15436   -2440.0229 
    7250    145.79985    1279.5154    9.0464128    9.0464129    18.053528          120   -1205.7482    37778.155   -36910.744    -17854.17    924.40117   -10022.903    9.0464128    7.8344234    18.053528   -112.77899   -2440.0709 
    7260    142.99501    1279.6014    9.0466154    9.0466155    18.053932          120   -389.95787    39549.519    -36744.41   -16405.348    1714.0664    -9479.141    9.0466154    7.8345988    18.053932    805.05036   -2440.0405 
    7270    136.48188    1279.6878     9.046819    9.0468191    18.054338          120   -221.94234    40819.431   -36722.105    -15396.05    906.70861   -9988.8326     9.046819    7.8347752    18.054338    1291.7945   -2439.9522 
    7280    130.42174    1279.7751    9.0470247    9.0470248    18.054749          120    373.43342    41946.432   -39108.874   -14318.433    1896.1448   -8967.3352    9.0470247    7.8349533    18.054749    1070.3306   -2439.8771 
    7290    126.41148    1279.8635    9.0472332    9.0472332    18.055165          120    340.29405    42101.412   -38619.452   -14121.278    4035.5244   -6682.7687    9.0472332    7.8351338    18.055165    1274.0849   -2439.8479 
    7300    122.46829    1279.9533    9.0474448    9.0474449    18.055587          120    196.75813    41637.182   -35748.636   -14553.289    4489.2275   -5487.0537    9.0474448    7.8353171    18.055587    2028.4348   -2439.7914 
    7310     118.0365    1280.0447    9.0476602    9.0476602    18.056017          120    1736.7932    41971.733   -37529.737   -13889.906    4529.1044   -5006.0085    9.0476602    7.8355036    18.056017    2059.5966   -2439.7332 
    7320    115.14832    1280.1378    9.0478794    9.0478795    18.056454          120    2366.1938    42216.805   -40383.741   -13640.102    4060.1558   -4917.3904    9.0478794    7.8356935    18.056454    1399.7526   -2439.7057 
    7330    115.88623    1280.2324    9.0481023    9.0481023    18.056899          120    1319.3825     42025.18   -39766.168   -14434.361    2868.6142   -4687.0505    9.0481023    7.8358865    18.056899    1192.7981   -2439.7319 
    7340    119.19972    1280.3282    9.0483281    9.0483281     18.05735          120    642.06167    43324.359    -40119.24   -14244.968    2271.7623    -3950.117    9.0483281    7.8360821     18.05735    1282.3938   -2439.8061 
    7350    122.29369    1280.4249    9.0485558    9.0485559    18.057804          120   -448.63933    44519.862   -42130.386   -14285.793    731.45601   -4472.4464    9.0485558    7.8362793    18.057804    646.94575   -2439.8753 
    7360    122.96777    1280.5219    9.0487843    9.0487843     18.05826          120    -2800.661    44800.965   -42757.367   -15350.703   -1253.8727   -5151.0342    9.0487843    7.8364771     18.05826   -252.35434   -2439.8885 
    7370     121.5021    1280.6188    9.0490125    9.0490126    18.058716          120   -4103.5729    45617.869   -42262.044   -15595.875   -872.76509   -3823.9907    9.0490125    7.8366748    18.058716   -249.24928   -2439.8675 
    7380     119.2631    1280.7155    9.0492402    9.0492403     18.05917          120   -4768.5113    45755.789   -40743.295   -15865.662   -508.99085   -2444.8982    9.0492402     7.836872     18.05917    81.327407   -2439.8509 
    7390    117.77618    1280.8117    9.0494668    9.0494669    18.059622          120   -5479.4648    44665.959    -40411.39   -16840.965   -2239.5798    -2898.962    9.0494668    7.8370683    18.059622   -408.29868   -2439.8494 
    7400    117.04775    1280.9073     9.049692    9.0496921    18.060072          120   -4840.4626    43994.286   -42021.612   -17100.397   -2728.1538   -3045.1437     9.049692    7.8372633    18.060072   -955.92961   -2439.8416 
    7410    116.46607    1281.0022    9.0499154    9.0499155    18.060518          120   -3871.2847    43483.997   -40982.131    -17157.94   -2374.5939   -2448.9084    9.0499154    7.8374567    18.060518   -456.47294    -2439.837 
    7420    115.66639    1281.0965    9.0501375    9.0501376    18.060961          120   -3136.9409    42618.736   -38639.751   -17583.281   -3201.8127   -2899.8496    9.0501375    7.8376491    18.060961    280.68117   -2439.8278 
    7430    115.47082    1281.1906    9.0503591    9.0503591    18.061403          120   -1428.8363    42730.841   -40496.273   -17065.101   -3929.6083   -3853.6484    9.0503591    7.8378409    18.061403    268.57724   -2439.8414 
    7440    117.28827    1281.2849    9.0505811    9.0505812    18.061846          120    57.996377    43267.449   -41666.775   -16378.538   -4361.9669   -4598.9909    9.0505811    7.8380332    18.061846    552.89015   -2439.8804 
    7450     122.2061    1281.3799    9.0508048    9.0508049    18.062293          120    36.038769    43283.886   -38088.852   -16568.634   -4210.2135   -4921.1909    9.0508048     7.838227    18.062293     1743.691   -2439.9635 
    7460    128.57383    1281.4764     9.051032    9.0510321    18.062746          120    350.11486    44222.194    -36540.38   -16063.977    -3059.044   -4676.0578     9.051032    7.8384238    18.062746    2677.3098   -2440.0595 
    7470    133.20078    1281.5751    9.0512645    9.0512645     18.06321          120    901.15147    45361.515   -37345.622   -15182.293   -2392.6037   -4966.3688    9.0512645    7.8386251     18.06321    2972.3481   -2440.1596 
    7480    134.10911    1281.6769    9.0515041    9.0515042    18.063688          120    915.54631    46061.295   -34745.363   -14812.561   -2099.9001   -5437.7319    9.0515041    7.8388326    18.063688    4077.1594   -2440.1821 
    7490    132.50285    1281.7829    9.0517536    9.0517537    18.064186          120    1881.9938    47093.376   -31431.286   -13945.521    41.569103    -4450.178    9.0517536    7.8390487    18.064186    5848.0279   -2440.1753 
    7500     131.0856    1281.8943    9.0520158    9.0520159    18.064709          120    2971.5755    47820.526   -30267.541   -13306.098    1698.4318   -3906.3143    9.0520158    7.8392757    18.064709    6841.5202   -2440.1779 
    7510     130.1788    1282.0121    9.0522931    9.0522932    18.065263          120    3559.9195    47693.425   -29782.537     -13465.6    735.49712   -5496.8064    9.0522931    7.8395159    18.065263    7156.9358   -2440.1693 
    7520    126.07213    1282.1372    9.0525875    9.0525875     18.06585          120    5612.4849    48010.211   -29583.176   -12680.944    484.74905   -6450.6062    9.0525875    7.8397708     18.06585    8013.1733   -2440.1201 
    7530    117.45468    1282.2703    9.0529007    9.0529008    18.066475          120    7534.3613    48459.171   -28210.296   -11765.426    1319.3184   -6088.3298    9.0529007     7.840042    18.066475    9261.0787    -2440.011 
    7540    109.95848    1282.4121    9.0532345    9.0532346    18.067141          120     7244.972    47738.923   -26009.497   -12403.349     1283.418   -6264.1253    9.0532345    7.8403311    18.067141    9658.1325   -2439.8926 
    7550     109.0189    1282.5632      9.05359      9.05359    18.067851          120    6562.9124     47654.16   -26692.621   -12750.126    1127.2728   -6858.8094      9.05359     7.840639    18.067851    9174.8171    -2439.885 
    7560    111.64925    1282.7235    9.0539672    9.0539672    18.068603          120    5669.6531    48317.196   -26592.597   -12984.894    1459.5593   -6976.1474    9.0539672    7.8409657    18.068603    9131.4176   -2439.9206 
    7570    112.54611    1282.8929    9.0543657    9.0543657    18.069399          120    3249.8836    47871.701   -23185.812   -14280.752    1944.1158   -6307.2664    9.0543657    7.8413108    18.069399    9311.9241   -2439.9429 
    7580    111.78906     1283.071    9.0547847    9.0547848    18.070235          120    1444.3409    47520.206   -23022.283   -15189.115    2873.6704   -5533.8581    9.0547847    7.8416736    18.070235    8647.4214   -2439.9286 
    7590    112.73106    1283.2573     9.055223     9.055223     18.07111          120    927.05871    46907.449   -25671.715   -15639.215    2360.8229   -6089.8242     9.055223    7.8420532     18.07111    7387.5977   -2439.9528 
    7600    116.15941    1283.4511    9.0556787    9.0556788    18.072019          120    175.82754    45229.602   -25208.771   -16875.309    525.60327   -7404.7757    9.0556787    7.8424479    18.072019    6732.2193   -2440.0141 
    7610    119.48812    1283.6514    9.0561499      9.05615    18.072959          120    225.08168    43678.928   -24883.972   -17809.943    646.94697   -7246.3858    9.0561499    7.8428559    18.072959    6340.0126   -2440.0735 
    7620    120.47507    1283.8575    9.0566345    9.0566346    18.073927          120    637.29673    42202.978   -26820.403   -18680.234    1168.7462   -6797.6138    9.0566345    7.8432757    18.073927     5339.957   -2440.0933 
    7630    119.67454    1284.0687    9.0571309     9.057131    18.074917          120     653.1108    40220.668   -27529.408   -20110.441    65.687958   -7772.4636    9.0571309    7.8437056    18.074917    4448.1236   -2440.0927 
    7640    119.27784    1284.2843    9.0576379     9.057638    18.075929          120     1784.838    39659.165   -27837.412   -20315.026   -346.30573   -8345.6282    9.0576379    7.8441446    18.075929    4535.5304   -2440.0926 
    7650    121.01188    1284.5042    9.0581547    9.0581548     18.07696          120    2511.4685    39757.328   -28438.147   -20276.826    1108.8904   -7427.5238    9.0581547    7.8445922     18.07696    4610.2165   -2440.1166 
    7660    124.44711     1284.728    9.0586808    9.0586809     18.07801          120    1227.1813    38760.803   -28490.656   -21548.747    2256.8416   -7082.5432    9.0586808    7.8450478     18.07801    3832.4427   -2440.1869 
    7670    127.49349    1284.9554    9.0592154    9.0592155    18.079077          120    1017.3296    39149.295   -29836.196   -21586.202    2311.0964   -7904.1657    9.0592154    7.8455108    18.079077    3443.4762    -2440.243 
    7680    128.84214    1285.1864    9.0597581    9.0597582     18.08016          120    2117.3302    40764.481   -30830.695   -20444.543    2700.7396   -8433.2715    9.0597581    7.8459808     18.08016    4017.0391   -2440.2674 
    7690    129.06305    1285.4209    9.0603091    9.0603092     18.08126          120    1741.0947    41300.414   -29951.241   -20543.708    3643.9413   -8376.7626    9.0603091    7.8464579     18.08126    4363.4226   -2440.2745 
    7700    129.41043    1285.6592    9.0608689     9.060869    18.082377          120    1874.0131    41883.291   -31475.071   -20462.121    4496.5191   -8808.5733    9.0608689    7.8469428    18.082377    4094.0779   -2440.2913 
    7710    130.62018    1285.9015    9.0614381    9.0614382    18.083513          120    4038.5914      42735.5   -33785.292   -19479.777    3991.6054   -10408.526    9.0614381    7.8474357    18.083513    4329.5996   -2440.3256 
    7720    131.74736     1286.148    9.0620171    9.0620172    18.084668          120    5540.0898    42529.443   -32713.073   -19379.826    3261.3241   -11437.066    9.0620171    7.8479371    18.084668      5118.82   -2440.3454 
    7730    130.68816    1286.3991    9.0626068    9.0626068    18.085845          120    6813.0079    42014.473   -33162.845   -19362.823     4446.458   -10837.498    9.0626068    7.8484478    18.085845    5221.5455   -2440.3459 
    7740    126.80536    1286.6548    9.0632074    9.0632074    18.087044          120    8530.0926    41822.135   -35886.685   -18668.494    5924.4638    -10157.82    9.0632074    7.8489679    18.087044    4821.8477   -2440.2987 
    7750    122.47083    1286.9154    9.0638191    9.0638192    18.088265          120    9196.5935    40972.896   -35594.939    -18406.82    5792.8083   -10472.236    9.0638191    7.8494977    18.088265    4858.1836   -2440.2571 
    7760    120.73821    1287.1807    9.0644418    9.0644419    18.089507          120    9184.2301    40959.385   -35242.758   -17782.029    5968.8549   -10497.368    9.0644418     7.850037    18.089507    4966.9522   -2440.2398 
    7770    122.24835    1287.4502    9.0650745    9.0650746     18.09077          120    7945.2277    41389.617   -37268.241   -17269.839    7261.3987    -9653.031    9.0650745    7.8505849     18.09077    4022.2015   -2440.2683 
    7780    124.11209    1287.7233    9.0657154    9.0657155    18.092049          120    4959.6577    40764.167   -38024.078    -17977.32     7184.016   -9721.1726    9.0657154      7.85114    18.092049    2566.5821   -2440.3026 
    7790    124.16252    1287.9989    9.0663622    9.0663622     18.09334          120    3378.7803    40621.317   -38794.797   -17700.799    5249.1489   -11202.143    9.0663622       7.8517     18.09334    1735.1001   -2440.3199 
    7800    123.87301     1288.276    9.0670123    9.0670124    18.094637          120    3140.7866    40523.145   -40336.224   -16849.875    3481.4545   -12580.913    9.0670123    7.8522631    18.094637    1109.2358   -2440.3232 
    7810    125.77489    1288.5536    9.0676634    9.0676635    18.095936          120    466.78975    38606.248   -40352.265   -17974.427    3095.1656   -12435.637    9.0676634    7.8528269    18.095936   -426.40933   -2440.3619 
    7820    127.92533    1288.8302    9.0683122    9.0683123    18.097231          120   -1889.3477    36292.199    -41215.19     -19119.3    3282.2129   -11722.468    9.0683122    7.8533888    18.097231   -2270.7796   -2440.3985 
    7830    126.93617    1289.1045    9.0689554    9.0689555    18.098515          120    -2306.946     34963.98   -42359.904   -18802.363    2479.5006   -11843.887    9.0689554    7.8539459    18.098515   -3234.2902   -2440.3877 
    7840    122.38737    1289.3752    9.0695903    9.0695903    18.099782          120   -3883.8098    33282.808    -40850.08   -18963.077     1670.606   -12105.228    9.0695903    7.8544956    18.099782   -3817.0273   -2440.3288 
    7850    117.49275    1289.6414    9.0702144    9.0702145    18.101027          120   -6179.2102    31888.421   -40766.211   -19237.746     2490.677   -11342.672    9.0702144    7.8550362    18.101027   -5019.0001   -2440.2564 
    7860    115.17508    1289.9021    9.0708256    9.0708257    18.102247          120   -8004.9115    31649.736   -42325.076   -18762.873      3506.29   -10717.665    9.0708256    7.8555655    18.102247   -6226.7504   -2440.2282 
    7870    115.72495    1290.1566     9.071422    9.0714221    18.103437          120   -10099.071    31369.365    -40658.19   -18693.501     2443.899   -11742.492     9.071422     7.856082    18.103437   -6462.6318   -2440.2319 
    7880    116.99393    1290.4041    9.0720022    9.0720022    18.104595          120   -11795.442    31502.609   -39482.723   -18455.778    1242.3006   -12862.734    9.0720022    7.8565844    18.104595   -6591.8518   -2440.2554 
    7890    117.62421    1290.6444    9.0725651    9.0725652    18.105719          120   -12705.233    32190.712   -41039.117   -17728.521    1807.0222   -13045.675    9.0725651     7.857072    18.105719   -7184.5457   -2440.2697 
    7900    117.92297    1290.8772    9.0731105    9.0731106    18.106807          120   -13839.423    32341.533   -40078.089   -17604.034    1960.2632   -13363.705    9.0731105    7.8575443    18.106807   -7191.9927   -2440.2772 
    7910    119.75196    1291.1026    9.0736388    9.0736389    18.107861          120   -13474.073    32542.534    -38037.27   -17025.541    714.10017   -14387.039    9.0736388    7.8580018    18.107861    -6322.936    -2440.308 
    7920    124.19729    1291.3212    9.0741509    9.0741509    18.108883          120   -11824.756    32901.365   -38483.806   -15904.899    387.09389   -14927.648    9.0741509    7.8584453    18.108883   -5802.3988   -2440.3816 
    7930     129.6582    1291.5334    9.0746478    9.0746479    18.109875          120   -11761.616    32382.862   -37937.363   -15974.908    1751.4073   -13865.723    9.0746478    7.8588756    18.109875    -5772.039   -2440.4805 
    7940    132.54276    1291.7397    9.0751309     9.075131    18.110839          120   -10634.843    32130.862   -36437.481   -15592.458    3012.6407   -12661.729    9.0751309     7.859294    18.110839   -4980.4874   -2440.5424 
    7950    131.35637    1291.9409     9.075602    9.0756021    18.111779          120   -7332.9437    33167.394   -36104.248   -13768.106    3299.3149   -12567.213     9.075602     7.859702    18.111779   -3423.2657   -2440.5287 
    7960    128.23007    1292.1381    9.0760637    9.0760638    18.112701          120   -5611.3444    33545.209   -35133.532   -13256.177     3404.821   -12438.892    9.0760637    7.8601019    18.112701    -2399.889   -2440.4796 
    7970    126.70748    1292.3324    9.0765186    9.0765187    18.113608          120    -5048.575    33868.501   -34725.535   -13386.168    4203.1534    -11510.66    9.0765186    7.8604958    18.113608   -1968.5366   -2440.4629 
    7980    126.44664    1292.5247    9.0769688    9.0769689    18.114507          120   -3489.4634    35651.871   -35533.818   -12292.899    4437.6577   -11125.712    9.0769688    7.8608857    18.114507   -1123.8035   -2440.4759 
    7990    123.78362    1292.7157    9.0774161    9.0774162    18.115399          120    -2622.717    36866.095   -34323.059   -11722.475    2709.2137   -12178.048    9.0774161     7.861273    18.115399   -26.560481   -2440.4417 
    8000    118.83796    1292.9062    9.0778619    9.0778619    18.116289          120   -2752.1627     37641.22    -34174.03   -11626.145     1412.059   -12960.772    9.0778619    7.8616591    18.116289    238.34247   -2440.3671 
    8010    117.09279    1293.0964    9.0783071    9.0783072    18.117178          120   -2437.4693    38481.022   -36674.635   -11173.518    2239.0659   -12322.574    9.0783071    7.8620447    18.117178   -210.36077   -2440.3584 
    8020    120.30939    1293.2865    9.0787519    9.0787519    18.118065          120   -2994.6614    38372.975   -36345.976   -11792.813    3214.4707    -11008.93    9.0787519    7.8624298    18.118065   -322.55417   -2440.4177 
    8030    123.58272    1293.4761    9.0791955    9.0791956    18.118951          120   -3290.5717    37704.148   -35448.696    -12748.33    2873.8866   -10686.932    9.0791955    7.8628141    18.118951   -345.03983   -2440.4845 
    8040    122.85951    1293.6648     9.079637    9.0796371    18.119832          120   -2888.1293     37419.37   -37864.203    -13011.32    2635.6519   -10893.057     9.079637    7.8631964    18.119832   -1110.9872   -2440.4959 
    8050    119.15034     1293.852     9.080075     9.080075    18.120706          120   -3971.5762    36622.011   -38977.176   -14210.106    3157.7676   -10349.129     9.080075    7.8635757    18.120706   -2108.9138   -2440.4425 
    8060    115.32066    1294.0371     9.080508    9.0805081     18.12157          120   -5200.8515    36245.487   -38442.109       -15173    3210.0927   -9766.4411     9.080508    7.8639507     18.12157   -2465.8246   -2440.3895 
    8070    112.24716    1294.2196    9.0809347    9.0809348    18.122421          120   -5474.1126    37067.188    -39607.88   -15034.862    1989.1948   -10599.479    9.0809347    7.8643202    18.122421   -2671.6016    -2440.345 
    8080    108.69806    1294.3987    9.0813537    9.0813538    18.123258          120   -7159.0803    36904.208   -40405.765   -15996.848    491.87755   -11686.158    9.0813537    7.8646831    18.123258   -3553.5456   -2440.2873 
    8090    104.04408     1294.574    9.0817636    9.0817636    18.124075          120   -9513.0309    37091.545   -40659.657   -17044.763     606.7883   -11309.474    9.0817636     7.865038    18.124075   -4360.3811    -2440.221 
    8100     99.61448    1294.7449    9.0821633    9.0821633    18.124873          120   -9824.4967     38660.54   -41391.098   -16441.592    1458.2561    -10580.24    9.0821633    7.8653842    18.124873   -4185.0184   -2440.1506 
    8110    97.292699    1294.9114    9.0825524    9.0825525     18.12565          120   -10437.985    39382.798   -40842.606   -16597.238    1054.7164   -10510.309    9.0825524    7.8657212     18.12565   -3965.9311   -2440.1216 
    8120    98.104043    1295.0732    9.0829308    9.0829309    18.126405          120   -11655.854    39286.347   -40916.327   -17515.781    755.53621   -10390.834    9.0829308    7.8660489    18.126405   -4428.6112   -2440.1341 
    8130    101.50692    1295.2304    9.0832983    9.0832984    18.127138          120   -11463.818    39844.358   -42589.787   -17377.181    2324.4086    -9213.534    9.0832983    7.8663672    18.127138    -4736.416   -2440.2188 
    8140    105.48408    1295.3829    9.0836548    9.0836548     18.12785          120   -11053.555    40105.469   -41412.684   -17311.828    3569.6957   -7908.4718    9.0836548    7.8666759     18.12785   -4120.2565   -2440.2863 
    8150    108.34099    1295.5309    9.0840006    9.0840006     18.12854          120   -10589.316     39609.47   -40156.831    -17542.64    3168.7303   -8073.2299    9.0840006    7.8669753     18.12854   -3712.2257   -2440.3481 
    8160    109.81005    1295.6746    9.0843364    9.0843365     18.12921          120   -9212.0899    39904.946   -42031.647   -16905.057    2734.1748   -8708.4502    9.0843364    7.8672662     18.12921   -3779.5969   -2440.3721 
    8170    110.64055    1295.8144    9.0846633    9.0846633    18.129862          120   -8583.3605    40365.678   -41800.367   -16534.421    3000.0086   -8202.0588    9.0846633    7.8675493    18.129862   -3339.3497   -2440.3944 
    8180    111.63025    1295.9509    9.0849823    9.0849824    18.130499          120   -8575.3037    41040.654   -39534.209    -16406.09    3167.4335   -7564.4845    9.0849823    7.8678255    18.130499   -2356.2863    -2440.427 
    8190     112.4954    1296.0846    9.0852947    9.0852948    18.131122          120   -8208.2705     42526.03   -40135.484   -15679.238    2491.2064   -8392.0702    9.0852947    7.8680961    18.131122   -1939.2416   -2440.4484 
    8200    111.58705     1296.216    9.0856016    9.0856016    18.131735          120   -8936.4165    43476.337   -40592.717   -15702.583    2190.6508   -8934.0293    9.0856016    7.8683618    18.131735   -2017.5989    -2440.436 
    8210    108.88989    1296.3453    9.0859038    9.0859039    18.132338          120   -9894.7045    44498.138   -39358.615   -15633.912    3442.8421   -7941.9742    9.0859038    7.8686236    18.132338   -1585.0607   -2440.3989 
    8220    107.31315    1296.4731    9.0862022    9.0862023    18.132934          120    -9063.374    45724.632   -39546.645   -14493.799    4892.7166    -7007.443    9.0862022     7.868882    18.132934   -961.79541   -2440.3793 
    8230     109.4892    1296.5994    9.0864973    9.0864973    18.133522          120   -9134.1032    44982.363   -39736.199   -14697.016    4642.1588   -7477.6455    9.0864973    7.8691375    18.133522     -1295.98    -2440.422 
    8240    113.49634     1296.724    9.0867883    9.0867883    18.134103          120   -9870.9431    42714.776   -39735.955   -15987.005    3652.8767   -8584.3521    9.0867883    7.8693896    18.134103   -2297.3741   -2440.4989 
    8250    115.58093    1296.8463     9.087074    9.0870741    18.134673          120   -8892.6524    41766.529   -40996.115    -15870.05    3530.4966   -9061.0989     9.087074    7.8696371    18.134673   -2707.4128   -2440.5354 
    8260    115.04051    1296.9659    9.0873534    9.0873535    18.135231          120    -8466.119    41020.508   -40833.552   -16039.336    3143.5239   -8993.0023    9.0873534     7.869879    18.135231   -2759.7207    -2440.537 
    8270    114.95855    1297.0823    9.0876251    9.0876252    18.135773          120   -9742.4191     39373.28   -40646.018   -17429.694    1717.9202   -9722.4079    9.0876251    7.8701143    18.135773    -3671.719   -2440.5566 
    8280    116.32913    1297.1945    9.0878873    9.0878873    18.136296          120   -10856.514    38653.366   -43116.956   -18116.539     261.2232   -11048.809    9.0878873    7.8703413    18.136296   -5106.7013   -2440.5861 
    8290      116.463    1297.3017    9.0881376    9.0881376    18.136796          120    -12334.58    38647.157   -43839.348    -18583.86     304.2844   -10623.054    9.0881376    7.8705581    18.136796   -5842.2571   -2440.5924 
    8300    113.06497    1297.4029    9.0883739    9.0883739    18.137267          120   -14124.357    38627.525   -43064.831   -19172.464     1130.502   -9451.5423    9.0883739    7.8707627    18.137267   -6187.2211   -2440.5502 
    8310    107.73264    1297.4973    9.0885944    9.0885945    18.137707          120   -14634.424    38621.831   -45366.602   -19233.268    943.52922   -9807.4504    9.0885944    7.8709537    18.137707   -7126.3983   -2440.4724 
    8320    103.94076    1297.5843    9.0887974    9.0887975    18.138113          120   -15289.956    37793.903   -46985.453   -19802.487     318.8235   -10641.919    9.0887974    7.8711295    18.138113   -8160.5021   -2440.4187 
    8330    103.83235    1297.6631    9.0889815    9.0889816     18.13848          120   -15919.111    36696.079   -45945.293   -20564.854    998.16854   -10674.637    9.0889815     7.871289     18.13848   -8389.4418   -2440.4076 
    8340    105.98477    1297.7333    9.0891453    9.0891453    18.138807          120   -15054.742    36033.397   -46821.643   -20362.758     2004.773   -10983.125    9.0891453    7.8714308    18.138807   -8614.3292   -2440.4504 
    8350      107.622    1297.7942    9.0892876    9.0892876    18.139091          120   -14632.025    34686.852   -48138.069   -20744.042    1710.9991   -12599.944    9.0892876     7.871554    18.139091   -9361.0806   -2440.4811 
    8360    107.89661    1297.8456    9.0894074    9.0894075     18.13933          120   -14659.091    32984.313   -47639.027    -21494.45    1336.3591   -14195.247    9.0894074    7.8716578     18.13933   -9771.2685   -2440.5016 
    8370    108.60568    1297.8872    9.0895046    9.0895046    18.139524          120   -13287.738    33274.213   -47879.333    -20538.89    2426.1054    -14673.74    9.0895046    7.8717419    18.139524   -9297.6192   -2440.5137 
    8380    111.09802    1297.9191    9.0895791    9.0895791    18.139673          120   -12751.117     33651.36   -48220.489   -19848.192    4171.3871   -14658.644    9.0895791    7.8718065    18.139673   -9106.7485   -2440.5676 
    8390    114.07046    1297.9414    9.0896311    9.0896311    18.139776          120   -13781.775    33137.525   -47888.509   -20362.528    5184.3368   -15283.388    9.0896311    7.8718515    18.139776   -9510.9196   -2440.6321 
    8400    113.84035    1297.9541    9.0896607    9.0896608    18.139835          120   -13498.085    34113.443   -48588.877   -19571.625    5912.9651   -16138.768    9.0896607    7.8718772    18.139835   -9324.5061   -2440.6392 
    8410    108.63583    1297.9575    9.0896687    9.0896687    18.139851          120   -12758.924    35806.221   -48139.445   -18262.897    7775.1935   -15558.928    9.0896687    7.8718841    18.139851   -8364.0494   -2440.5819 
    8420    101.51617    1297.9521    9.0896562    9.0896562    18.139826          120    -13133.69    36633.627     -46874.5   -18061.471    9498.8337   -14731.443    9.0896562    7.8718732    18.139826   -7791.5207   -2440.4886 
    8430    97.000162    1297.9386    9.0896245    9.0896246    18.139763          120   -12651.449    36825.107   -48027.757   -17810.449    9499.6712   -15569.397    9.0896245    7.8718458    18.139763   -7951.3661   -2440.4402 
    8440    94.918585    1297.9171    9.0895744    9.0895744    18.139663          120   -11891.906    36448.569   -47942.461    -17827.08     8596.443   -16670.001    9.0895744    7.8718024    18.139663    -7795.266   -2440.4167 
    8450    92.134815    1297.8879    9.0895062    9.0895063    18.139527          120   -11841.577    35833.374   -45626.724   -18271.434    8661.6625   -16112.763    9.0895062    7.8717434    18.139527   -7211.6424    -2440.377 
    8460    88.691575    1297.8511    9.0894203    9.0894204    18.139356          120   -11383.043    35895.883   -46291.533   -17967.026    9201.6601   -15311.062    9.0894203     7.871669    18.139356   -7259.5645   -2440.3408 
    8470    87.933774    1297.8067    9.0893167    9.0893168    18.139149          120   -12032.163     35595.99   -47480.648   -18253.006    9011.5821    -15176.99    9.0893167    7.8715792    18.139149   -7972.2736   -2440.3463 
    8480    90.846448    1297.7544    9.0891947    9.0891948    18.138905          120   -14054.749     35091.66    -46052.33   -19502.283    8591.0476   -14774.292    9.0891947    7.8714736    18.138905   -8338.4729   -2440.3991 
    8490     94.21202    1297.6939    9.0890534    9.0890535    18.138624          120   -15363.941    36188.974   -45750.145   -19669.764    9135.1768   -13605.135    9.0890534    7.8713512    18.138624   -8308.3705   -2440.4539 
    8500    95.047039    1297.6248    9.0888919     9.088892    18.138301          120   -17127.817    37206.963   -46371.932   -20142.582    10092.499   -12021.907    9.0888919    7.8712114    18.138301   -8764.2621   -2440.4678 
    8510    93.730465    1297.5465    9.0887093    9.0887094    18.137937          120   -19885.829    37032.303   -45827.473   -21649.907    9496.3584   -11509.035    9.0887093    7.8710532    18.137937   -9560.3331   -2440.4571 
    8520    92.221116    1297.4589    9.0885047    9.0885048    18.137528          120   -20652.406    37317.255   -45726.911   -22045.035    7873.8197   -11909.847    9.0885047     7.870876    18.137528   -9687.3541   -2440.4306 
    8530    91.454567    1297.3616    9.0882775    9.0882776    18.137075          120   -20921.834    37575.108   -45090.676    -22194.39    7284.6073   -11667.244    9.0882775    7.8706793    18.137075   -9479.1337   -2440.4128 
    8540    91.063912    1297.2545    9.0880274    9.0880275    18.136576          120   -22478.565    36780.972   -43969.627   -23465.883    7577.1354   -10749.214    9.0880274    7.8704627    18.136576    -9889.073   -2440.4161 
    8550     90.28582    1297.1374    9.0877539     9.087754     18.13603          120   -22641.414    36250.247   -44700.988   -24085.247    6850.3291   -10900.875    9.0877539    7.8702258     18.13603   -10364.052    -2440.413 
    8560    88.968541    1297.0101    9.0874567    9.0874568    18.135437          120   -21812.034    36260.199   -44340.537   -24077.148      5814.66   -11306.297    9.0874567    7.8699684    18.135437   -9964.1239   -2440.3979 
    8570    87.950832    1296.8729    9.0871362    9.0871363    18.134797          120   -21933.347    36183.114   -42439.694   -24504.585    6334.7719   -10264.111    9.0871362    7.8696909    18.134797    -9396.642   -2440.4038 
    8580    88.123029     1296.726     9.086793    9.0867931    18.134113          120   -21839.723    36783.708   -43228.284   -24393.627    7656.8134   -9261.9806     9.086793    7.8693937    18.134113   -9428.0996   -2440.4148 
    8590    89.761997    1296.5697     9.086428     9.086428    18.133384          120   -21614.322    37523.798   -43962.537   -24062.052    7820.9455   -9453.9956     9.086428    7.8690775    18.133384   -9351.0204   -2440.4554 
    8600    92.185401    1296.4044    9.0860417    9.0860418    18.132613          120   -21848.224    38062.013    -41680.43   -24057.026    7083.0859   -9736.3323    9.0860417    7.8687431    18.132613   -8488.8803   -2440.5013 
    8610    93.938074    1296.2306    9.0856356    9.0856357    18.131803          120   -21450.429    39529.385   -41321.977   -23111.622    7334.9957    -9520.728    9.0856356    7.8683913    18.131803   -7747.6734   -2440.5378 
    8620     93.88547    1296.0488     9.085211    9.0852111    18.130955          120   -20852.148    40909.699   -42576.198   -22018.259     7854.215   -9525.1723     9.085211    7.8680236    18.130955    -7506.216   -2440.5459 
    8630    92.556402    1295.8598    9.0847694    9.0847694    18.130074          120   -20591.603    41348.617   -41371.275   -21727.753    6673.5205   -10387.295    9.0847694    7.8676412    18.130074   -6871.4205   -2440.5359 
    8640    91.418843    1295.6644    9.0843126    9.0843126    18.129162          120    -18653.06    42055.055    -40511.55   -20759.932    5143.4285   -11564.501    9.0843126    7.8672455    18.129162   -5703.1849   -2440.5266 
    8650    91.340059    1295.4632    9.0838423    9.0838424    18.128224          120     -16669.1    42617.093   -41035.977   -19934.303    5272.9375   -11632.418    9.0838423    7.8668383    18.128224   -5029.3278    -2440.534 
    8660    91.170133    1295.2569    9.0833602    9.0833603    18.127262          120   -16247.093    42069.953   -40760.364   -20338.435    6248.7677   -10674.448    9.0833602    7.8664208    18.127262   -4979.1683   -2440.5458 
    8670    89.617402    1295.0461    9.0828673    9.0828674    18.126278          120    -14578.27    41904.469   -41075.794   -19890.336    6341.5799   -10524.086    9.0828673    7.8659939    18.126278   -4583.1982   -2440.5364 
    8680    88.202154    1294.8311    9.0823648    9.0823648    18.125275          120   -12614.238    42352.726   -41157.242   -18821.297    6044.8515   -10791.977    9.0823648    7.8655587    18.125275    -3806.251   -2440.5172 
    8690    90.144655    1294.6124    9.0818533    9.0818534    18.124255          120   -13207.443    41934.168   -40060.336   -19143.907    6454.1466   -10280.489    9.0818533    7.8651157    18.124255   -3777.8703   -2440.5625 
    8700    94.755824    1294.3899     9.081333     9.081333    18.123216          120   -14295.277    42070.456   -41078.166   -19374.535    7105.2157   -9765.5289     9.081333    7.8646651    18.123216   -4434.3288   -2440.6422 
    8710    97.813285    1294.1634    9.0808033    9.0808033    18.122159          120     -14453.8    42674.392   -42116.133    -19057.58    6264.6728   -10402.661    9.0808033    7.8642064    18.122159   -4631.8471   -2440.6929 
    8720    97.107698    1293.9327    9.0802638    9.0802639    18.121082          120   -15072.109    42727.177   -40479.642   -19413.445    4307.7941   -11432.015    9.0802638    7.8637392    18.121082   -4274.8578   -2440.6682 
    8730    94.834811    1293.6979    9.0797143    9.0797144    18.119986          120   -15429.948    42671.167   -40954.156   -19660.425    3880.0947   -11553.942    9.0797143    7.8632633    18.119986    -4570.979   -2440.6548 
    8740    93.719057    1293.4585    9.0791544    9.0791544    18.118868          120   -15460.926    42424.702   -42906.882   -19953.126    4738.3551   -10901.439    9.0791544    7.8627784    18.118868   -5314.3684   -2440.6481 
    8750      93.4683    1293.2144    9.0785831    9.0785832    18.117728          120   -16005.911    41287.857   -42017.091   -21005.729    4591.3532   -10288.209    9.0785831    7.8622837    18.117728   -5578.3819   -2440.6791 
    8760    91.699662    1292.9651    9.0779998    9.0779998    18.116564          120   -15036.579    40488.175   -41477.492   -21351.283    3954.2187   -10167.455    9.0779998    7.8617785    18.116564   -5341.9653   -2440.6554 
    8770    87.850491    1292.7106     9.077404     9.077404    18.115375          120   -13942.152     40118.82   -42926.215   -21319.809    4731.1339   -9449.2273     9.077404    7.8612625    18.115375   -5583.1827   -2440.6116 
    8780    84.048669    1292.4506    9.0767955    9.0767956    18.114161          120   -14192.083    39351.814   -42723.063   -22213.537    5845.9271   -8249.7126    9.0767955    7.8607356    18.114161   -5854.4442   -2440.5683 
    8790    82.913116    1292.1854    9.0761747    9.0761748    18.112922          120   -13359.517    39398.273   -42230.053   -22366.219    5620.3571   -8203.3127    9.0761747    7.8601979    18.112922    -5397.099   -2440.5585 
    8800     84.87628    1291.9152    9.0755419     9.075542    18.111659          120   -11957.284    40115.834   -42733.605   -22025.994    4619.1027    -8999.938    9.0755419    7.8596499    18.111659   -4858.3518   -2440.5901 
    8810    87.923538    1291.6402    9.0748979    9.0748979    18.110374          120   -12456.329    40247.482   -42419.128   -22819.026     4470.259   -9078.3525    9.0748979    7.8590922    18.110374   -4875.9917   -2440.6427 
    8820     89.46326    1291.3607    9.0742433    9.0742434    18.109068          120   -12475.586    41140.807    -42564.65   -22842.388    5133.9151   -8853.4255    9.0742433    7.8585253    18.109068    -4633.143   -2440.6817 
    8830    89.183145    1291.0772    9.0735793    9.0735793    18.107742          120   -10623.869    42679.416   -42819.161   -21681.157    4810.4638   -9395.1954    9.0735793    7.8579502    18.107742   -3587.8714   -2440.7004 
    8840    88.914239    1290.7905    9.0729074    9.0729075    18.106402          120   -9769.8765    43363.387   -41573.419   -21358.001    4025.7309   -10028.417    9.0729074    7.8573684    18.106402   -2659.9697   -2440.7147 
    8850    90.148824    1290.5012    9.0722296    9.0722297    18.105049          120   -9112.0401    43825.952   -41701.813    -21167.08    4965.4162   -9642.4649    9.0722296    7.8567814    18.105049   -2329.3002   -2440.7489 
    8860    91.558635    1290.2101    9.0715475    9.0715475    18.103688          120   -7279.6643    44649.078   -42324.061    -20315.86    6852.7609   -8636.4933    9.0715475    7.8561906    18.103688   -1651.5492   -2440.7741 
    8870    90.341746    1289.9181     9.070863     9.070863    18.102322          120   -5748.5555    44925.499   -40200.752   -19920.815     7178.989   -8372.5359     9.070863    7.8555979    18.102322   -341.26937   -2440.7644 
    8880    86.091876     1289.626    9.0701783    9.0701783    18.100955          120   -3976.0941    45306.461   -39357.655    -19303.22    6846.5825   -8862.8499    9.0701783    7.8550049    18.100955    657.57073   -2440.7063 
    8890    82.335118    1289.3348    9.0694955    9.0694956    18.099593          120   -2566.9072    46216.305   -40694.715   -18370.861     7438.935   -8876.3649    9.0694955    7.8544136    18.099593    984.89448   -2440.6644 
    8900    81.961703    1289.0452    9.0688165    9.0688165    18.098238          120    -2928.992    46765.989   -39310.209   -18246.515    7647.2041   -8708.2968    9.0688165    7.8538255    18.098238    1508.9294   -2440.6671 
    8910    83.569409    1288.7578    9.0681424    9.0681425    18.096892          120   -3203.0697    47764.689   -37576.645   -17721.386     6476.696   -9542.5096    9.0681424    7.8532418    18.096892    2328.3248   -2440.6914 
    8920    84.522066    1288.4729    9.0674743    9.0674743    18.095559          120   -3188.4157    48911.538    -38163.66   -16771.482    4972.7963   -10974.084    9.0674743    7.8526631    18.095559    2519.8207   -2440.7247 
    8930    84.898483    1288.1909    9.0668125    9.0668126    18.094238          120   -4989.8259    49155.108   -37524.629   -17036.328    4611.7699   -11191.476    9.0668125    7.8520901    18.094238    2213.5511   -2440.7409 
    8940    86.421598    1287.9117    9.0661574    9.0661575    18.092931          120   -6399.5978    49469.139   -36283.979   -17186.328    5268.5004   -10263.243    9.0661574    7.8515227    18.092931    2261.8542   -2440.7776 
    8950    89.248906    1287.6353     9.065509    9.0655091    18.091637          120   -6109.9363    49751.803   -35880.141   -16854.365    5318.6232    -9648.359     9.065509    7.8509612    18.091637     2587.242   -2440.8336 
    8960    91.602284    1287.3618    9.0648671    9.0648672    18.090356          120   -6796.5069    48764.664   -34712.291   -17897.789    4202.6948   -9600.3187    9.0648671    7.8504053    18.090356     2418.622   -2440.8591 
    8970     91.84866     1287.091    9.0642314    9.0642315    18.089087          120   -7537.0898    47584.583    -34263.74   -19051.514    3956.8499   -9085.8696    9.0642314    7.8498548    18.089087    1927.9174   -2440.8623 
    8980    90.070683    1286.8228    9.0636018    9.0636019    18.087831          120   -6885.3556    47357.236   -34273.483    -19151.32    4380.2272   -8019.3079    9.0636018    7.8493095    18.087831    2066.1326   -2440.8494 
    8990     87.40981    1286.5573    9.0629783    9.0629783    18.086586          120   -6597.6205    46747.087   -32372.431   -19769.783    3165.9993     -7935.22    9.0629783    7.8487695    18.086586    2592.3454   -2440.8154 
    9000    85.163883    1286.2944    9.0623611    9.0623611    18.085355          120   -6697.7541    45987.957   -31784.371   -20607.859    1386.1053   -8743.1988    9.0623611     7.848235    18.085355    2501.9439   -2440.7951 
    9010    84.045567    1286.0345    9.0617505    9.0617505    18.084136          120   -6454.4217    46177.156   -32743.515   -20823.002    1105.3605   -8805.6275    9.0617505    7.8477062    18.084136    2326.4065   -2440.7792 
    9020    83.655045    1285.7775    9.0611469    9.0611469    18.082932          120   -6903.7994    46340.347   -30732.936   -21360.307    1561.5515   -8225.2772    9.0611469    7.8471835    18.082932    2901.2037   -2440.7808 
    9030    83.148838    1285.5238     9.060551    9.0605511    18.081743          120   -6931.6945    46648.749   -28836.959   -21575.844    1356.8862   -8464.5694     9.060551    7.8466674    18.081743    3626.6985   -2440.7828 
    9040    82.532616     1285.274    9.0599639     9.059964    18.080571          120   -5849.6667    47257.421   -29857.501   -21201.056     1096.047   -9237.1213    9.0599639     7.846159    18.080571    3850.0845   -2440.7727 
    9050    82.641266    1285.0284    9.0593868    9.0593868    18.079419          120   -5601.9405    47316.921    -29017.36   -21464.047    1850.0328    -9253.071    9.0593868    7.8456592    18.079419    4232.5399   -2440.7874 
    9060    84.229703    1284.7876     9.058821    9.0588211     18.07829          120   -4755.4938    47280.568     -26781.8   -21501.847    3124.6133   -8941.9387     9.058821    7.8451692     18.07829    5247.7581   -2440.8262 
    9070    86.834554    1284.5524    9.0582682    9.0582682    18.077187          120   -2384.9469    47389.877   -27030.236   -20825.689    3620.9224   -9730.1148    9.0582682    7.8446904    18.077187    5991.5645   -2440.8853 
    9080    88.324365    1284.3233    9.0577296    9.0577297    18.076112          120   -789.19154    46618.676   -27127.618   -20910.405    3133.3885   -11500.177    9.0577296    7.8442241    18.076112    6233.9554   -2440.9143 
    9090    87.039815     1284.101    9.0572069     9.057207    18.075069          120    948.33828    46073.881   -26351.105   -20824.266    3450.9604   -12477.474    9.0572069    7.8437713    18.075069    6890.3714   -2440.8967 
    9100    84.012838    1283.8861    9.0567016    9.0567017    18.074061          120    3689.3341    46920.984   -26358.906   -19558.346    4483.1418   -12961.487    9.0567016    7.8433338    18.074061    8083.8042   -2440.8556 
    9110    82.094193    1283.6794    9.0562157    9.0562158    18.073091          120    4915.7034    47130.154   -25884.193   -19258.829    4507.3232   -14388.735    9.0562157     7.842913    18.073091    8720.5546   -2440.8439 
    9120    82.231579    1283.4816    9.0557505    9.0557506    18.072162          120    4855.5697    47151.397   -25956.372   -19619.814    4256.8794   -16175.831    9.0557505      7.84251    18.072162    8683.5316   -2440.8529 
    9130    82.320753    1283.2929    9.0553067    9.0553068    18.071277          120    5263.9878    48486.253   -26965.666   -18908.755    5469.5133   -16797.193    9.0553067    7.8421257    18.071277    8928.1915   -2440.8598 
    9140    80.740695    1283.1137    9.0548851    9.0548851    18.070435          120    4970.6878    49514.513   -25900.886   -18605.518    7026.8991   -16339.224    9.0548851    7.8417606    18.070435    9528.1048   -2440.8427 
    9150    79.717961     1282.944    9.0544859     9.054486    18.069639          120    4411.4705    49525.872   -25578.914   -18948.075    7348.6685    -16544.43    9.0544859    7.8414149    18.069639    9452.8095   -2440.8358 
    9160    81.847906    1282.7838     9.054109    9.0541091    18.068886          120    4908.2447    49121.532   -28075.982   -19091.619    7045.3545   -17524.972     9.054109    7.8410885    18.068886    8651.2647   -2440.8689 
    9170    85.477271    1282.6327    9.0537534    9.0537535    18.068177          120    4846.0107    48041.388   -28523.759   -20001.333    6818.4093   -17817.401    9.0537534    7.8407805    18.068177    8121.2131   -2440.9322 
    9180     86.76153      1282.49    9.0534178    9.0534179    18.067507          120    4792.8862     46956.35   -27662.681   -21011.513    7053.2523   -17208.277    9.0534178    7.8404899    18.067507    8028.8516   -2440.9558 
    9190    84.936284    1282.3555    9.0531011    9.0531012    18.066875          120    5577.9247    46487.297   -29575.914   -21313.514     6823.926   -17297.902    9.0531011    7.8402157    18.066875    7496.4359   -2440.9296 
    9200    82.556606    1282.2284    9.0528021    9.0528022    18.066278          120    5206.3646    45554.383   -30946.558    -22280.54    5888.0126   -17877.159    9.0528021    7.8399567    18.066278    6604.7298   -2440.9002 
    9210    81.945603    1282.1084    9.0525196    9.0525197    18.065715          120    4009.1738    45084.307   -30419.718    -23177.95     5954.024   -17320.273    9.0525196    7.8397121    18.065715    6224.5876   -2440.8988 
    9220    82.453773    1281.9948    9.0522524    9.0522525    18.065181          120    3232.9382    45983.199    -30894.04   -22932.203    7321.6394   -15915.924    9.0522524    7.8394806    18.065181    6107.3659   -2440.9137 
    9230    81.921318    1281.8873    9.0519993    9.0519994    18.064676          120    1653.8269    46207.198    -31340.73   -23309.626    7911.4606   -15245.808    9.0519993    7.8392615    18.064676    5506.7651   -2440.9202 
    9240    79.855969    1281.7854    9.0517595    9.0517595    18.064198          120    150.87057    46249.132   -31343.081   -23818.169    7477.4319   -15277.951    9.0517595    7.8390537    18.064198    5018.9737   -2440.8901 
    9250    78.132294    1281.6889    9.0515324    9.0515325    18.063744          120      421.427    47273.459   -31744.593   -23100.891     8027.015   -14646.065    9.0515324    7.8388571    18.063744    5316.7643   -2440.8666 
    9260    78.629292    1281.5979    9.0513182    9.0513183    18.063317          120    298.06636    47833.045   -30910.478    -22928.62    8981.7701   -13605.684    9.0513182    7.8386716    18.063317    5740.2113   -2440.8768 
    9270    81.422005    1281.5126    9.0511171    9.0511172    18.062916          120   -122.77839    47359.482   -30463.591   -23562.426    8766.6617   -13549.197    9.0511171    7.8384975    18.062916    5591.0376   -2440.9268 
    9280    84.514641    1281.4329    9.0509296    9.0509297    18.062542          120    1258.7066    47267.574   -31597.166   -23275.703     8013.039   -14186.758    9.0509296    7.8383351    18.062542    5643.0381   -2440.9825 
    9290    85.708895    1281.3593    9.0507563    9.0507564    18.062196          120    2726.6826    47398.568   -30581.065    -22811.26    7905.1715   -13813.612    9.0507563    7.8381849    18.062196    6514.7284   -2441.0081 
    9300    84.906967    1281.2922    9.0505983    9.0505984     18.06188          120    3510.1032    47426.928   -28828.503   -22642.959    8440.2792   -12651.314    9.0505983    7.8380481     18.06188    7369.5093   -2440.9973 
    9310    84.058625    1281.2323    9.0504573    9.0504574    18.061599          120     4792.423    47908.816   -29769.326   -21821.629    8600.9963   -12498.427    9.0504573     7.837926    18.061599    7643.9711   -2440.9927 
    9320    84.138083    1281.1803    9.0503348    9.0503348    18.061354          120    5518.0937     48355.22   -29370.415   -21259.689    8135.2208   -12695.863    9.0503348    7.8378199    18.061354    8167.6329   -2441.0017 
    9330    83.657183    1281.1367    9.0502321    9.0502322     18.06115          120    5374.7403    49134.177   -26829.976   -20967.244    8247.1548   -11889.239    9.0502321     7.837731     18.06115     9226.314   -2441.0029 
    9340    80.677156    1281.1022     9.050151     9.050151    18.060988          120    5747.4432    50714.716    -26519.04   -19957.521    9194.6092   -10813.045     9.050151    7.8376607    18.060988    9981.0397    -2440.961 
    9350    75.807361    1281.0775    9.0500929    9.0500929    18.060872          120    5734.7606    51378.304   -26689.243   -19578.902    8781.5407   -10818.532    9.0500929    7.8376104    18.060872    10141.274   -2440.9144 
    9360    72.086319    1281.0632     9.050059    9.0500591    18.060804          120    5679.6599    51355.349   -25292.516   -19746.253     6903.608   -11538.676     9.050059    7.8375811    18.060804    10580.831   -2440.8589 
    9370     71.18223    1281.0596    9.0500506    9.0500507    18.060787          120    6777.0499    51508.323   -24831.934   -19261.057    5932.4482   -11692.769    9.0500506    7.8375738    18.060787    11151.146   -2440.8593 
    9380    71.657288    1281.0669    9.0500679     9.050068    18.060822          120     6870.653    50961.141   -24407.646   -19503.262     5840.152   -11080.726    9.0500679    7.8375888    18.060822    11141.383   -2440.8625 
    9390    71.472448    1281.0852     9.050111    9.0501111    18.060908          120    5945.7377    49441.814   -23876.553   -20635.244     5236.578   -10662.577     9.050111    7.8376261    18.060908    10503.666   -2440.8685 
    9400    70.497748    1281.1142    9.0501791    9.0501792    18.061044          120    6277.9568    48811.904   -24527.208   -20604.171    4355.7611    -10787.54    9.0501791    7.8376851    18.061044    10187.551   -2440.8617 
    9410     69.78632    1281.1534    9.0502715    9.0502716    18.061228          120    5788.9274    48685.365   -23905.242   -20609.832    4420.0105   -10050.468    9.0502715    7.8377651    18.061228    10189.683   -2440.8569 
    9420    70.197902    1281.2026    9.0503873    9.0503874    18.061459          120    3486.2277    48102.001   -22857.258   -21695.034    5194.4606   -8579.0475    9.0503873    7.8378654    18.061459    9576.9901   -2440.8767 
    9430    71.162289    1281.2611    9.0505251    9.0505252    18.061734          120    1747.2568     48212.11   -24271.575   -22203.827    5451.6824   -8049.0993    9.0505251    7.8379847    18.061734    8562.5972   -2440.8978 
    9440    71.406438    1281.3283    9.0506834    9.0506835     18.06205          120    618.97243    48407.395    -24603.05   -22484.239    4389.0944   -8351.3648    9.0506834    7.8381218     18.06205     8141.106   -2440.9021 
    9450    70.495775    1281.4037     9.050861     9.050861    18.062405          120   -888.16665    48432.064    -23224.64   -23078.704    3652.7975   -8030.8305     9.050861    7.8382756    18.062405    8106.4192   -2440.8869 
    9460    69.446198     1281.487    9.0510569    9.0510569    18.062795          120   -1810.3375    48734.106   -24350.828   -23096.395    4362.3729   -7266.0011    9.0510569    7.8384453    18.062795    7524.3135   -2440.8847 
    9470    69.633965    1281.5775    9.0512701    9.0512702    18.063221          120   -2472.1369    48534.967   -25613.146   -23295.478    4472.0656    -7052.049    9.0512701    7.8386299    18.063221    6816.5612   -2440.9053 
    9480    71.620968    1281.6751    9.0514997    9.0514998    18.063679          120   -2889.3983    47886.031   -24559.963   -23871.479     3625.623   -6978.6101    9.0514997    7.8388288    18.063679    6812.2231   -2440.9411 
    9490     74.33161    1281.7793    9.0517452    9.0517452    18.064169          120   -2189.4199    47885.442   -24789.556   -23547.665    4157.7043    -6230.541    9.0517452    7.8390413    18.064169    6968.8218   -2440.9899 
    9500    76.020424    1281.8902    9.0520062    9.0520063     18.06469          120   -2013.2011    47897.456   -25683.937   -23441.319     5998.902    -4788.063    9.0520062    7.8392674     18.06469    6733.4391   -2441.0177 
    9510    76.158886    1282.0078    9.0522829    9.0522829    18.065242          120   -2041.5293     47395.64   -25213.117   -23758.751    6866.8108   -3932.9437    9.0522829     7.839507    18.065242    6713.6643   -2441.0288 
    9520    75.904861    1282.1322    9.0525757    9.0525757    18.065826          120   -538.60402    47932.378     -25297.7    -22785.71    7062.2607   -3924.3439    9.0525757    7.8397606    18.065826     7365.358   -2441.0312 
    9530     76.53615    1282.2637    9.0528853    9.0528854    18.066444          120    381.98995    48664.708   -25514.677   -21962.304    7800.7598   -3509.9284    9.0528853    7.8400287    18.066444    7844.0068   -2441.0435 
    9540    77.584335    1282.4028    9.0532125    9.0532126    18.067097          120   -353.87847    48653.527   -25215.435   -22148.366    8651.5028   -2852.1216    9.0532125    7.8403121    18.067097    7694.7379   -2441.0683 
    9550    76.817865    1282.5495    9.0535577    9.0535578    18.067786          120    158.64225    49353.646   -26191.335   -21231.697     8717.843   -3255.8857    9.0535577    7.8406111    18.067786    7773.6511   -2441.0598 
    9560    73.368924    1282.7041    9.0539214    9.0539215    18.068512          120    1573.9636    50034.024   -26608.122   -19882.933    7761.9949   -4441.5123    9.0539214     7.840926    18.068512    8333.2883   -2441.0169 
    9570    69.954428    1282.8667     9.054304    9.0543041    18.069276          120     1615.441    49769.229   -25875.456    -19641.22    7478.3127    -4866.905     9.054304    7.8412573    18.069276    8503.0715   -2440.9676 
    9580    69.606047    1283.0374    9.0547056    9.0547057    18.070077          120    1682.9184    49315.139   -27327.744   -19452.796    8719.6107   -4584.2962    9.0547056    7.8416052    18.070077    7890.1047   -2440.9705 
    9590    71.318422     1283.216    9.0551257    9.0551258    18.070915          120     2082.502    48443.852   -28560.072   -19379.394    9498.6832    -4529.142    9.0551257     7.841969    18.070915    7322.0942   -2441.0046 
    9600    71.951064    1283.4019     9.055563    9.0555631    18.071788          120    2137.9272    46745.296   -27724.797   -19851.056    9020.6382   -5022.9815     9.055563    7.8423477    18.071788    7052.8085   -2441.0289 
    9610    71.072215    1283.5946    9.0560162    9.0560162    18.072693          120    2298.2851    45505.561   -28794.129    -19720.92    9278.7222   -5373.9139    9.0560162    7.8427401    18.072693    6336.5726   -2441.0176 
    9620    70.929246    1283.7932    9.0564832    9.0564833    18.073625          120    1415.5613      44275.7   -30941.885    -19965.49    10069.285   -5385.0574    9.0564832    7.8431446    18.073625    4916.4587   -2441.0309 
    9630    72.341389    1283.9967    9.0569618    9.0569619     18.07458          120   -320.15629    42544.106   -31130.151   -20970.403    9399.8661   -6003.7334    9.0569618    7.8435591     18.07458    3697.9329   -2441.0608 
    9640     73.21227    1284.2039     9.057449     9.057449    18.075552          120   -1090.8841    41628.864   -32081.882    -21123.82    7786.4664   -7553.9902     9.057449     7.843981    18.075552    2818.6994   -2441.0828 
    9650    71.582678    1284.4136    9.0579419     9.057942    18.076536          120   -2219.0662    40861.749   -33874.254   -21335.173     6895.372   -8697.6433    9.0579419    7.8444079    18.076536    1589.4763   -2441.0647 
    9660    68.102145    1284.6245    9.0584377    9.0584378    18.077525          120   -4738.7564    39669.268   -34548.496   -22401.352    7050.5269   -8721.3462    9.0584377    7.8448373    18.077525    127.33834   -2441.0124 
    9670    64.869742    1284.8356    9.0589338    9.0589339    18.078515          120   -5834.1601    39009.304   -35711.023   -22562.449    7058.1315   -8811.3267    9.0589338    7.8452669    18.078515    -845.2933   -2440.9771 
    9680    63.222668    1285.0458    9.0594277    9.0594277    18.079501          120   -5949.8754    38241.364   -36729.775    -22450.63    6339.0503   -9250.7878    9.0594277    7.8456946    18.079501   -1479.4291   -2440.9601 
    9690    62.920414     1285.254     9.059917    9.0599171    18.080477          120   -7255.3066    36640.305   -36912.669   -23358.617    6168.6466   -9057.9184     9.059917    7.8461184    18.080477   -2509.2238   -2440.9508 
    9700    62.876843    1285.4595    9.0603998    9.0603999    18.081441          120   -7972.0978    35432.675   -38340.407   -23703.551    7202.1956   -8201.5879    9.0603998    7.8465365    18.081441     -3626.61    -2440.962 
    9710    62.622511    1285.6613     9.060874    9.0608741    18.082387          120   -7445.2575    34710.359   -39235.007   -23293.657    7449.9226   -7857.7056     9.060874    7.8469472    18.082387   -3989.9685   -2440.9706 
    9720    62.795566    1285.8591    9.0613385    9.0613386    18.083314          120   -7216.7412     33533.91   -38473.059    -23377.53    6265.9552   -8431.1158    9.0613385    7.8473494    18.083314   -4051.9632   -2440.9754 
    9730    64.192335    1286.0523    9.0617924    9.0617925     18.08422          120   -7091.3999    32915.631   -39548.695   -23213.219    5887.1493   -8727.6238    9.0617924    7.8477425     18.08422   -4574.8212   -2440.9986 
    9740    66.671929    1286.2408    9.0622351    9.0622351    18.085103          120   -7110.4927        32956   -40850.795   -22711.956    6389.6141   -8383.3676    9.0622351    7.8481259    18.085103   -5001.7627   -2441.0433 
    9750    68.924724    1286.4243     9.062666    9.0626661    18.085963          120   -7592.6656    32806.848   -39428.113   -22577.352    6075.5391   -8415.9495     9.062666    7.8484991    18.085963   -4737.9769   -2441.0794 
    9760    69.290222    1286.6028    9.0630852    9.0630853      18.0868          120   -7489.8069    33123.411   -39095.182   -21762.534      5395.57   -9169.7271    9.0630852    7.8488621      18.0868   -4487.1925   -2441.0924 
    9770    67.429057    1286.7764    9.0634929    9.0634929    18.087613          120   -7428.8482    33553.324   -40221.786    -20740.42    5878.6351   -9307.1924    9.0634929    7.8492151    18.087613   -4699.1035   -2441.0702 
    9780    64.748681    1286.9452    9.0638891    9.0638892    18.088404          120   -8415.0756    33369.867   -39303.446   -20444.172    7224.7124   -8280.6944    9.0638891    7.8495583    18.088404   -4782.8847   -2441.0414 
    9790    62.794783    1287.1093    9.0642742    9.0642743    18.089173          120   -8157.8967    33232.925   -38403.922   -19698.785    8059.1581   -7627.7744    9.0642742    7.8498918    18.089173   -4442.9645   -2441.0124 
    9800    61.797318    1287.2686    9.0646481    9.0646482    18.089919          120   -7270.0518    32618.937   -38763.813   -18953.648    7972.5375   -7995.1883    9.0646481    7.8502156    18.089919   -4471.6429   -2441.0029 
    9810    60.706976     1287.423    9.0650106    9.0650106    18.090642          120   -7666.8033    30859.434   -38503.445   -19413.717    7875.0802   -8231.2907    9.0650106    7.8505295    18.090642   -5103.6048   -2440.9906 
    9820    59.117999    1287.5722    9.0653607    9.0653608    18.091341          120   -7696.7892      29727.4   -38905.482   -19335.348    8434.0746   -7849.9222    9.0653607    7.8508328    18.091341   -5624.9572    -2440.978 
    9830    58.330927    1287.7158    9.0656977    9.0656978    18.092014          120   -7316.7724    29314.705     -39380.3   -18685.068    8311.1619   -7931.5723    9.0656977    7.8511246    18.092014   -5794.1223   -2440.9708 
    9840    59.780898    1287.8533    9.0660204    9.0660205    18.092658          120   -8420.8264    27900.834     -38785.1   -19235.393    7168.6358   -8652.4477    9.0660204     7.851404    18.092658   -6435.0307    -2440.994 
    9850    62.282175    1287.9839    9.0663269     9.066327    18.093269          120   -10134.246    26905.892   -39900.536   -19727.123    6852.3389   -9024.0814    9.0663269    7.8516695    18.093269   -7709.6302   -2441.0384 
    9860    63.296315    1288.1068    9.0666152    9.0666153    18.093845          120   -11542.516    26933.905   -41431.341   -19528.606    7749.9129   -8318.1915    9.0666152    7.8519192    18.093845    -8679.984   -2441.0669 
    9870    61.795829     1288.221    9.0668831    9.0668832    18.094379          120   -13129.152    26636.938   -40677.178   -19835.754    8119.8467   -7489.7468    9.0668831    7.8521512    18.094379   -9056.4641   -2441.0445 
    9880    59.255148    1288.3258     9.067129    9.0671291     18.09487          120    -13969.07    26170.759   -41336.319   -20054.775    7566.6113   -7671.1535     9.067129    7.8523641     18.09487   -9711.5433    -2441.006 
    9890    57.591102    1288.4205    9.0673512    9.0673513    18.095313          120   -14280.299    25763.009   -43600.589   -20205.289    7453.2195   -7920.7434    9.0673512    7.8525566    18.095313    -10705.96   -2440.9803 
    9900    57.170352    1288.5045    9.0675483    9.0675483    18.095707          120   -15166.188    25072.858    -43511.04   -20988.152    7781.0052   -7449.1581    9.0675483    7.8527272    18.095707   -11201.457   -2440.9834 
    9910    56.694228    1288.5773     9.067719     9.067719    18.096047          120   -14929.944    24799.432   -43442.356   -21278.857    7678.3089   -7360.6326     9.067719    7.8528751    18.096047   -11190.956   -2440.9746 
    9920     55.45894    1288.6385    9.0678625    9.0678626    18.096334          120   -14017.269    24810.891   -45279.119   -21176.398    6753.5051   -8386.0776    9.0678625    7.8529994    18.096334   -11495.166   -2440.9558 
    9930    54.314648    1288.6879    9.0679785    9.0679786    18.096565          120   -14194.898     24447.06   -45878.699   -21753.343    6161.3292   -8950.6422    9.0679785    7.8530998    18.096565   -11875.512   -2440.9435 
    9940    54.950978    1288.7255    9.0680668    9.0680668    18.096741          120   -14119.204    25128.237   -45934.586   -21688.479    6765.0507    -8481.219    9.0680668    7.8531763    18.096741   -11641.851    -2440.964 
    9950    57.897553    1288.7514    9.0681275    9.0681275    18.096863          120   -13585.438    26682.919   -46660.311   -21028.513    7346.5576   -8420.2105    9.0681275    7.8532288    18.096863    -11187.61   -2441.0088 
    9960    61.653735    1288.7658    9.0681611    9.0681612     18.09693          120    -14183.42    27428.892   -46792.327   -21379.137    7201.7849    -9005.059    9.0681611    7.8532579     18.09693   -11182.285   -2441.0742 
    9970    63.817837    1288.7688    9.0681682    9.0681683    18.096944          120   -14616.341    28775.601   -47178.351   -21423.411    7567.0997   -9166.3065    9.0681682    7.8532641    18.096944   -11006.364   -2441.1137 
    9980     63.71192    1288.7609    9.0681498    9.0681499    18.096907          120   -13949.326    31092.474   -47564.087    -20511.78    8832.4536   -8565.6598    9.0681498    7.8532482    18.096907   -10140.313    -2441.131 
    9990      62.6658    1288.7428    9.0681073    9.0681074    18.096822          120    -13689.67    32517.224   -46458.461    -20369.07    9170.3941   -8410.4454    9.0681073    7.8532114    18.096822   -9210.3021   -2441.1234 
   10000    62.149266    1288.7152    9.0680426    9.0680426    18.096693          120   -13178.388     33115.26   -46559.196   -20583.333    8376.6686   -9332.0662    9.0680426    7.8531553    18.096693   -8874.1079   -2441.1311 
Loop time of 33.3757 on 1 procs for 10000 steps with 119 atoms

Performance: 2.589 ns/day, 9.271 hours/ns, 299.619 timesteps/s
99.8% CPU use with 1 MPI tasks x 1 OpenMP threads

MPI task timing breakdown:
Section |  min time  |  avg time  |  max time  |%varavg| %total
---------------------------------------------------------------
Pair    | 27.102     | 27.102     | 27.102     |   0.0 | 81.20
Bond    | 0.0045407  | 0.0045407  | 0.0045407  |   0.0 |  0.01
Kspace  | 2.3836     | 2.3836     | 2.3836     |   0.0 |  7.14
Neigh   | 0.42707    | 0.42707    | 0.42707    |   0.0 |  1.28
Comm    | 0.3481     | 0.3481     | 0.3481     |   0.0 |  1.04
Output  | 1.7444     | 1.7444     | 1.7444     |   0.0 |  5.23
Modify  | 1.2913     | 1.2913     | 1.2913     |   0.0 |  3.87
Other   |            | 0.07441    |            |       |  0.22

Nlocal:    119 ave 119 max 119 min
Histogram: 1 0 0 0 0 0 0 0 0 0
Nghost:    7846 ave 7846 max 7846 min
Histogram: 1 0 0 0 0 0 0 0 0 0
Neighs:    82003 ave 82003 max 82003 min
Histogram: 1 0 0 0 0 0 0 0 0 0

Total # of neighbors = 82003
Ave neighs/atom = 689.101
Ave special neighs/atom = 0.0504202
Neighbor list builds = 149
Dangerous builds = 0
print		" "
 
print		"All done!"
All done!
Total wall time: 0:00:36
