LAMMPS (16 Mar 2018)
# Fin dminimud floating point parameter in input script or data file (../fix_nh.cpp:132)energy for Beryl

#----- Initialize Simulation -----
clear
units 		metal
boundary 	p p p
atom_style 	full
bond_style	none
variable	etol equal 1e-25
variable 	ftol equal 1e-25
variable 	maxiter equal 5000
variable 	maxeval equal 10000
variable	probeTemp equal 2000

#----- Create Atoms -----
read_data 	beryl_water_100.mod
  triclinic box = (0 0 0) to (9.208 7.97436 18.376) with tilt (-4.604 0 0)
  1 by 1 by 1 MPI processor grid
  reading atoms ...
  128 atoms
  scanning bonds ...
  2 = max bonds/atom
  scanning angles ...
  1 = max angles/atom
  reading bonds ...
  8 bonds
  reading angles ...
  4 angles
  2 = max # of 1-2 neighbors
  1 = max # of 1-3 neighbors
  1 = max # of 1-4 neighbors
  2 = max # of special neighbors
replicate 	8 8 2
  triclinic box = (0 0 0) to (73.664 63.7949 36.752) with tilt (-36.832 0 0)
  1 by 1 by 1 MPI processor grid
  16384 atoms
  1024 bonds
  512 angles
  2 = max # of 1-2 neighbors
  1 = max # of 1-3 neighbors
  1 = max # of 1-4 neighbors
  2 = max # of special neighbors
  Time spent = 0.00462818 secs

#----- Define Interatomic Potential -----
include 	potential_main.mod
kspace_style 	pppm 1.0e-4

# Neighbor Style
neighbor	0.3 bin
neigh_modify	delay 0 every 1 check yes

# Minimization style
min_style	cg

# Setup Output
thermo		10
thermo_style	custom	step temp vol cella cellb cellc cellgamma pxx pyy pzz pxy pxz pyz lx ly lz press pe #c_eatoms
thermo_modify	norm no
variable 	myVol equal vol
variable	myCella equal cella
variable	myCellb equal cellb
variable	myCellc equal cellc
variable	myCellgamma equal cellgamma
include 	potential_beryl.mod
# Potential Paramters
pair_style 	hybrid/overlay morse 5.5 buck 5.5 lj/cut/coul/long 5.5 15.0
pair_coeff    1    1 morse     		  0 	       0           0  # Be Be
pair_coeff    1    1 buck                 0            1           -201.0
pair_coeff    1    1 lj/cut/coul/long	  10120.	0.413
pair_coeff    1    2 morse     		  0 	       0           0  # Be Al
pair_coeff    1    2 buck                 0            1           0
pair_coeff    1    2 lj/cut/coul/long	  0	       0
pair_coeff    1    3 morse     		  0 	       0           0  # Al Si
pair_coeff    1    3 buck                 0            1           0
pair_coeff    1    3 lj/cut/coul/long	  0	       0
pair_coeff    1    4 morse 		  0.239919     2.527420    1.815405	#Be O
pair_coeff    1    4 buck                 0.000000     1.000000   -46.00000
pair_coeff    1    4 lj/cut/coul/long     529.000      0.528
pair_coeff    2    2 morse     		  0 	       0           0  # Al Al
pair_coeff    2    2 buck                 0            1           -492.
pair_coeff    2    2 lj/cut/coul/long	  60423		0.356
pair_coeff    2    3 morse     		  0 	       0           0  # Al si
pair_coeff    2    3 buck                 0            1           0
pair_coeff    2    3 lj/cut/coul/long	  0	       0
pair_coeff    2    4 morse 		  0.361581     1.900442    2.164818	#Al O
pair_coeff    2    4 buck                 0.000000     1.000000   -71.5
pair_coeff    2    4 lj/cut/coul/long     1420.0	0.482
pair_coeff    3    3 morse     		  0 	       0           0  # Si Si
pair_coeff    3    3 buck                 0            1           -282.
pair_coeff    3    3 lj/cut/coul/long	  19730		0.391
pair_coeff    3    4 morse 		  0.340554     2.006700    2.100000	#Si O
pair_coeff    3    4 buck                 0.000000     1.000000   -60.5
pair_coeff    3    4 lj/cut/coul/long     916.		0.504
pair_coeff    4    4 morse     		  0.042395     1.379316    3.618701  # O O
pair_coeff    4    4 buck                 0.000000     1.000000   -16.7
pair_coeff    4    4 lj/cut/coul/long	  3.16		1.05
include 	potential_water.mod
# Potential Paramters

pair_coeff    1    6 morse     		  0. 	       0.           0.  		# Ow Be
pair_coeff    1    6 buck                 0            1           -354.5
pair_coeff    1    6 lj/cut/coul/long	  39.637	1.1435
pair_coeff    2    6 morse     		  0 	       0           0  		# Ow Al
pair_coeff    2    6 buck                 0            1           -554.6
pair_coeff    2    6 lj/cut/coul/long	  96.854	1.0616
pair_coeff    3    6 morse     		  0 	       0           0  		# Ow Si
pair_coeff    3    6 buck                 0            1           -419.9
pair_coeff    3    6 lj/cut/coul/long	  55.345	1.1126
pair_coeff    4    6 morse     		  0 	       0           0  		# Ow O
pair_coeff    4    6 buck                 0            1           -102.9
pair_coeff    4    6 lj/cut/coul/long	  0.70042	1.8233
pair_coeff    5    6 morse     		  0 	       0           0  # Hw Hw
pair_coeff    5    6 buck                 0            1           0
pair_coeff    5    6 lj/cut/coul/long	  0.000	      0.0
pair_coeff    6    6 morse     		  0 	       0           0  		# Ow Ow
pair_coeff    6    6 buck                 0            1           -625.4
pair_coeff    6    6 lj/cut/coul/long	  0.15525	3.166
pair_coeff    1    5 morse     		  0 	       0           0  # Hw Hw
pair_coeff    1    5 buck                 0            1           0
pair_coeff    1    5 lj/cut/coul/long	  0.000	      0.0
pair_coeff    2    5 morse     		  0 	       0           0  # Hw Hw
pair_coeff    2    5 buck                 0            1           0
pair_coeff    2    5 lj/cut/coul/long	  0.000	      0.0
pair_coeff    3    5 morse     		  0 	       0           0  # Hw Hw
pair_coeff    3    5 buck                 0            1           0
pair_coeff    3    5 lj/cut/coul/long	  0.000	      0.0
pair_coeff    4    5 morse     		  0 	       0           0  # Hw Hw
pair_coeff    4    5 buck                 0            1           0
pair_coeff    4    5 lj/cut/coul/long	  0.000	      0.0
pair_coeff    5    5 morse     		  0 	       0           0  # Hw Hw
pair_coeff    5    5 buck                 0            1           0
pair_coeff    5    5 lj/cut/coul/long	  0.000	      0.0



bond_style	harmonic
angle_style	harmonic
dihedral_style	none
improper_style	none

bond_coeff	1 1000.00 1.000
angle_coeff	1 100.0 109.47


#------ Define Settings -----

# ----- Run Minimization -----
fix 		BRX all box/relax iso 1.013
minimize	1e-25 1e-25 5000 10000 # Performs actual minimization
PPPM initialization ...
WARNING: System is not charge neutral, net charge = -0.4096 (../kspace.cpp:302)
  using 12-bit tables for long-range coulomb (../kspace.cpp:321)
  G vector (1/distance) = 0.201666
  grid = 36 50 24
  stencil order = 5
  estimated absolute RMS force accuracy = 0.00101776
  estimated relative force accuracy = 7.06792e-05
  using double precision FFTs
  3d grid and FFT values/proc = 65395 43200
Neighbor list info ...
  update every 1 steps, delay 0 steps, check yes
  max neighbors/atom: 2000, page size: 100000
  master list distance cutoff = 15.3
  ghost atom cutoff = 15.3
  binsize = 7.65, bins = 15 9 5
  3 neighbor lists, perpetual/occasional/extra = 3 0 0
  (1) pair morse, perpetual
      attributes: half, newton on
      pair build: half/bin/newton/tri
      stencil: half/bin/3d/newton/tri
      bin: standard
  (2) pair buck, perpetual, copy from (1)
      attributes: half, newton on
      pair build: copy
      stencil: none
      bin: none
  (3) pair lj/cut/coul/long, perpetual, copy from (1)
      attributes: half, newton on
      pair build: copy
      stencil: none
      bin: none
Per MPI rank memory allocation (min/avg/max) = 184.1 | 184.1 | 184.1 Mbytes
Step Temp Volume Cella Cellb Cellc CellGamma Pxx Pyy Pzz Pxy Pxz Pyz Lx Ly Lz Press PotEng 
       0            0    172711.88       73.664    73.664001       36.752          120   -204221.37   -202842.58    -274841.9    23.767381    562.25713   -195.00554       73.664    63.794896       36.752   -227301.95   -308836.57 
      10            0    172194.26    73.590336    73.590337    36.715248          120   -192189.23   -194768.65   -263528.48    2321.6464    5712.8844   -2246.7939    73.590336    63.731101    36.715248   -216828.79   -308944.05 
      20            0    171677.68    73.516672    73.516673    36.678496          120   -179015.63   -185559.13   -251813.84    4627.5613    10882.096   -4306.8487    73.516672    63.667306    36.678496   -205462.87   -309011.07 
      30            0    171162.13    73.443008    73.443009    36.641744          120   -165791.96   -176319.42   -240255.44    6944.6436    16070.683   -6373.7411    73.443008    63.603511    36.641744   -194122.27   -309078.28 
      40            0    170647.62    73.369344    73.369345    36.604992          120   -152433.49   -166964.89   -228515.54    9271.0688    21280.841   -8450.0417    73.369344    63.539716    36.604992   -182637.98   -309139.19 
      50            0    170134.13     73.29568    73.295681     36.56824          120   -138934.42   -157481.25   -216539.41     11606.86    26512.675   -10534.023     73.29568    63.475922     36.56824   -170985.03   -309194.97 
      60            0    169621.68    73.222016    73.222017    36.531488          120    -125489.3   -148060.15   -204924.64    13954.608    31763.607   -12626.405    73.222016    63.412127    36.531488   -159491.36   -309253.19 
      70            0    169110.26    73.148352    73.148353    36.494736          120   -111836.58   -138454.86   -192888.02    16306.028    37035.163   -14726.502    73.148352    63.348332    36.494736   -147726.49   -309303.05 
      80            0    168599.87    73.074688    73.074689    36.457984          120   -98097.845   -128779.15   -180713.95    18668.428    42329.219   -16834.766    73.074688    63.284537    36.457984   -135863.65   -309348.96 
      90            0     168090.5    73.001024    73.001025    36.421232          120     -84192.9    -118951.5      -168319    21039.803    47641.944   -18951.544    73.001024    63.220742    36.421232   -123821.13   -309389.94 
     100            0    167582.16     72.92736    72.927361     36.38448          120   -70382.116   -109231.05   -155863.38    23423.203    52976.577   -21075.704     72.92736    63.156947     36.38448   -111825.52   -309431.33 
     110            0    167074.85    72.853696    72.853697    36.347728          120   -56239.697   -99200.706   -143429.71    25811.439    58331.896   -23208.519    72.853696    63.093152    36.347728   -99623.371   -309465.23 
     120            0    166568.56    72.780032    72.780033    36.310976          120   -42025.695   -89112.884   -130869.18    28207.336    63706.915   -25349.785    72.780032    63.029357    36.310976    -87335.92   -309495.57 
     130            0     166063.3    72.706368    72.706369    36.274224          120   -27635.912   -78867.314   -118185.76    30615.062    69101.425    -27499.56    72.706368    62.965562    36.274224   -74896.328   -309521.36 
     140            0    165559.06    72.632704    72.632705    36.237472          120   -13154.566   -68543.964   -105279.82    33030.765     74516.44   -29657.787    72.632704    62.901767    36.237472   -62326.118    -309542.7 
     150            0    165055.84     72.55904    72.559041     36.20072          120    1441.6913   -58118.465   -92355.177    35455.816    79950.495   -31821.248     72.55904    62.837973     36.20072   -49677.317   -309560.73 
     160            0    164553.64    72.485376    72.485377    36.163968          120    16133.142   -47614.799   -79414.427    37885.779    85400.991    -33989.46    72.485376    62.774178    36.163968   -36965.361   -309575.27 
     170            0    164115.06     72.42092    72.420921     36.13181          120    29057.663   -38365.176   -68056.516    40014.929    90181.601   -35892.033     72.42092    62.718357     36.13181    -25788.01   -309585.15 
     177            0    164108.04    72.419888    72.419888    36.131295          120    29265.947   -38215.729   -67871.699    40049.069    90258.205   -35922.515    72.419888    62.717463    36.131295    -25607.16   -309585.27 
Loop time of 136.77 on 1 procs for 177 steps with 16384 atoms

100.0% CPU use with 1 MPI tasks x no OpenMP threads

Minimization stats:
  Stopping criterion = linesearch alpha is zero
  Energy initial, next-to-last, final = 
        -308836.570535     -309585.277588     -309585.277588
  Force two-norm initial, final = 73508.8 8127.34
  Force max compponent initial, final = 73508.6 8004.18
  Final line search alpha, max atom move = 1.86167e-16 1.49012e-12
  Iterations, force evaluations = 177 256

MPI task timing breakdown:
Section |  min time  |  avg time  |  max time  |%varavg| %total
---------------------------------------------------------------
Pair    | 104.55     | 104.55     | 104.55     |   0.0 | 90.25
Bond    | 0.013685   | 0.013685   | 0.013685   |   0.0 |  0.01
Kspace  | 2.9338     | 2.9338     | 2.9338     |   0.0 |  2.53
Neigh   | 5.082      | 5.082      | 5.082      |   0.0 |  4.39
Comm    | 0.072795   | 0.072795   | 0.072795   |   0.0 |  0.06
Output  | 0.0020041  | 0.0020041  | 0.0020041  |   0.0 |  0.00
Modify  | 0          | 0          | 0          |   0.0 |  0.00
Other   |            | 3.187      |            |       |  2.75

Nlocal:    16384 ave 16384 max 16384 min
Histogram: 1 0 0 0 0 0 0 0 0 0
Nghost:    51224 ave 51224 max 51224 min
Histogram: 1 0 0 0 0 0 0 0 0 0
Neighs:    1.2254e+07 ave 1.2254e+07 max 1.2254e+07 min
Histogram: 1 0 0 0 0 0 0 0 0 0

Total # of neighbors = 12253952
Ave neighs/atom = 747.922
Ave special neighs/atom = 0.1875
Neighbor list builds = 15
Dangerous builds = 0
reset_timestep	0
timestep	0.0001
velocity       	all create ${probeTemp} 87287 loop geom
velocity       	all create 2000 87287 loop geom
fix		1 all npt temp ${probeTemp} ${probeTemp} 0.1 iso 1.013 1.013 5.0
fix		1 all npt temp 2000 ${probeTemp} 0.1 iso 1.013 1.013 5.0
fix		1 all npt temp 2000 2000 0.1 iso 1.013 1.013 5.0
run		10000 # Warmup
PPPM initialization ...
  using 12-bit tables for long-range coulomb (../kspace.cpp:321)
  G vector (1/distance) = 0.202498
  grid = 36 50 24
  stencil order = 5
  estimated absolute RMS force accuracy = 0.000966408
  estimated relative force accuracy = 6.71133e-05
  using double precision FFTs
  3d grid and FFT values/proc = 65395 43200
Per MPI rank memory allocation (min/avg/max) = 185.4 | 185.4 | 185.4 Mbytes
Step Temp Volume Cella Cellb Cellc CellGamma Pxx Pyy Pzz Pxy Pxz Pyz Lx Ly Lz Press PotEng 
       0         2000    164108.04    72.419888    72.419888    36.131295          120     56993.42   -10568.079   -40489.425    39706.101    90389.633   -35579.873    72.419888    62.717463    36.131295    1978.6388   -309584.95 
      10    2048.9459       164108    72.419883    72.419883    36.131292          120   -112124.94    -94734.93   -187315.89   -9403.3426   -18512.565    5891.3319    72.419883    62.717459    36.131292   -131391.92   -309697.14 
      20    1914.3156    164107.89    72.419866    72.419866    36.131284          120   -213092.47   -149342.94   -280340.46   -37141.553   -84141.841    35787.916    72.419866    62.717444    36.131284   -214258.63   -309405.78 
      30    1873.5222    164107.69    72.419836    72.419837    36.131269          120    2132.0019   -37285.703   -87155.998    23090.871    50449.934   -16872.655    72.419836    62.717418    36.131269     -40769.9   -309326.48 
      40    1735.7485    164107.42    72.419796    72.419797    36.131249          120    17836.493   -24998.417   -65852.706     25474.65    58481.488   -24206.666    72.419796    62.717384    36.131249    -24338.21   -309034.95 
      50    1570.0762    164107.08    72.419746    72.419747    36.131224          120   -196321.18   -140156.76   -258143.81   -31442.075    -71427.61    25026.865    72.419746    62.717341    36.131224   -198207.25    -308679.5 
      60    1529.4518    164106.66    72.419685    72.419685    36.131194          120   -117143.62   -99783.393   -184906.82   -10267.605   -26086.995    12520.715    72.419685    62.717287    36.131194   -133944.61   -308601.38 
      70    1312.0923    164106.17    72.419612    72.419613    36.131158          120    62557.842     3342.483   -8416.0005     31891.38    72500.201   -23368.461    72.419612    62.717225    36.131158    19161.442   -308128.26 
      80    1350.5348    164105.62    72.419532    72.419532    36.131117          120   -78154.109   -74966.165   -134984.19   -1502.2524   -3560.5629   -1831.7118    72.419532    62.717155    36.131117   -96034.822   -308220.67 
      90    1205.1803    164105.01    72.419442    72.419442    36.131073          120   -197797.99   -149097.07   -249254.19   -25852.838   -62612.051    17945.366    72.419442    62.717077    36.131073   -198716.42   -307900.54 
     100    1253.7007    164104.32    72.419341    72.419342    36.131022          120   -6777.7302   -33816.207   -53525.814    12364.783    26645.278   -5101.9957    72.419341     62.71699    36.131022   -31373.251   -308009.36 
     110    1254.9634    164103.58    72.419232    72.419233    36.130968          120    30774.836   -8927.9929   -6079.3349    17346.342    42668.281   -10150.049    72.419232    62.716896    36.130968    5255.8359   -308008.09 
     120    1262.9281    164102.79    72.419116    72.419116     36.13091          120    -167878.6   -137627.98   -206221.55   -15013.648    -37374.37    4703.1918    72.419116    62.716795     36.13091   -170576.04   -308021.19 
     130    1364.9528    164101.93     72.41899     72.41899    36.130847          120   -125038.19   -110483.18   -157046.41   -6742.1794   -20945.732    2461.8924     72.41899    62.716685    36.130847   -130855.93   -308242.82 
     140    1327.9772    164101.02    72.418854    72.418855    36.130779          120    46868.829    7435.1201    35431.073    14072.158    36496.063   -2666.0694    72.418854    62.716568    36.130779    29911.674   -308152.01 
     150    1480.7183    164100.05    72.418712    72.418713    36.130709          120   -58183.742   -66259.159    -72786.24     698.1469    3912.1981   -1430.2037    72.418712    62.716445    36.130709   -65743.047   -308487.44 
     160    1370.4463    164099.03    72.418563    72.418563    36.130634          120   -188294.37   -160967.04   -214025.06   -10195.474    -30292.67   -2579.9485    72.418563    62.716316    36.130634   -187762.16   -308237.32 
     170    1517.6358    164097.95    72.418404    72.418404    36.130555          120   -27044.447    -39485.87   -25999.243    3366.5962    7688.7073     778.9813    72.418404    62.716178    36.130555   -30843.187   -308559.95 
     180    1426.2626    164096.82    72.418238    72.418238    36.130472          120    33596.217    8804.2503    50390.574    5473.3913    18663.709    2957.6963    72.418238    62.716034    36.130472    30930.347   -308354.68 
     190    1458.0453    164095.66    72.418066    72.418067    36.130386          120   -140564.03   -129014.77   -149477.42   -4494.7821   -12196.099    -4762.324    72.418066    62.715886    36.130386   -139685.41   -308424.07 
     200    1473.4957    164094.44    72.417887    72.417888    36.130297          120   -126244.71   -117485.25   -127945.69   -2312.1622   -8716.9751   -4090.8078    72.417887    62.715731    36.130297   -123891.88   -308455.81 
     210    1401.6862    164093.18    72.417701    72.417702    36.130204          120     43947.72    27954.366    81696.344    2740.9322    10242.514    5814.3473    72.417701     62.71557    36.130204    51199.476   -308294.62 
     220    1503.3861    164091.88    72.417511    72.417512    36.130109          120   -30088.214   -33851.168   -5839.9145   -614.10076     1480.849    610.73294    72.417511    62.715405    36.130109   -23259.765   -308518.58 
     230    1395.9331    164090.56    72.417316    72.417317    36.130012          120   -162895.75   -152203.26   -165264.58   -2604.6428    -6132.002   -7724.0888    72.417316    62.715236    36.130012    -160121.2   -308275.41 
     240    1522.8083    164089.19    72.417115    72.417116    36.129912          120   -23915.895   -25502.053    12565.084    150.84053    867.84668    1872.4093    72.417115    62.715062    36.129912   -12284.288   -308555.25 
     250    1440.4909     164087.8    72.416911    72.416911     36.12981          120    53463.718    48352.485    110597.74   -241.76463    443.57853    6205.3883    72.416911    62.714885     36.12981    70804.648   -308366.33 
     260    1531.9158     164086.4    72.416704    72.416704    36.129707          120   -100646.86   -96399.342   -82964.616   -2191.8117   -315.24494    -4208.797    72.416704    62.714706    36.129707   -93336.941   -308566.32 
     270    1492.4769    164084.97    72.416493    72.416494    36.129601          120    -108446.3   -103179.14    -86151.46   -660.55175    1189.5351   -4080.5988    72.416493    62.714524    36.129601   -99258.966   -308475.88 
     280    1497.8096    164083.51     72.41628     72.41628    36.129495          120    57692.261    57897.578     128391.9      145.539   -4290.2032    5939.4454     72.41628    62.714338    36.129495    81327.246   -308483.76 
     290    1535.6082    164082.06    72.416065    72.416066    36.129388          120    9613.6093    10089.399     64471.37   -2093.1331   -2626.7883    2300.8082    72.416065    62.714153    36.129388    28058.126   -308566.85 
     300    1418.2269     164080.6    72.415851    72.415851    36.129281          120   -127968.47   -122497.89   -107264.91   -1979.2318    4862.3171   -5501.7841    72.415851    62.713967    36.129281   -119243.75   -308306.39 
     310    1500.1794    164079.12    72.415634    72.415634    36.129173          120   -11957.635   -6628.4631    48432.281    956.88717   -2311.1894    1212.4522    72.415634    62.713779    36.129173    9948.7275      -308488 
     320    1369.4829    164077.65    72.415417    72.415418    36.129065          120     85672.74    85362.587    171651.23   -579.79575   -8654.9206    5676.8741    72.415417    62.713592    36.129065    114228.85    -308198.3 
     330    1398.8689    164076.19    72.415203    72.415203    36.128958          120   -57869.326   -55099.546   -13251.691   -3268.9412    2389.2999   -2220.7761    72.415203    62.713406    36.128958   -42073.521   -308266.09 
     340     1340.706    164074.74    72.414988    72.414989    36.128851          120   -92462.287   -83533.906   -50068.849    6.7549362    4729.4495   -2757.7045    72.414988     62.71322    36.128851   -75355.014   -308135.86 
     350    1319.1184    164073.28    72.414774    72.414775    36.128744          120    76269.113    77194.076    165672.25    1821.1774   -9201.2303     4519.068    72.414774    62.713035    36.128744    106378.48   -308087.56 
     360    1344.2859    164071.85    72.414563    72.414564    36.128639          120    48057.554     45724.94    124914.25   -1970.1176   -6047.2784    1801.8557    72.414563    62.712852    36.128639    72898.915   -308142.27 
     370    1285.0303    164070.43    72.414355    72.414356    36.128535          120   -106517.91   -97998.923   -67262.005    -2486.719    7671.4305   -3435.0639    72.414355    62.712672    36.128535   -90592.946   -308006.45 
     380    1380.0002    164069.02    72.414148    72.414148    36.128431          120   -6525.4931   -524.08082    61506.487    2419.6099   -1864.9111    990.33367    72.414148    62.712492    36.128431    18152.304   -308214.46 
     390     1308.295    164067.63    72.413943    72.413943    36.128329          120    109042.96    102528.34    199473.46    1497.5199   -12405.081    3602.5878    72.413943    62.712315    36.128329    137014.92   -308049.37 
     400    1416.4147    164066.26    72.413742    72.413742    36.128229          120   -32218.038   -30837.012    22518.686   -3093.9816    1539.0344   -1263.1625    72.413742    62.712141    36.128229   -13512.121   -308284.17 
     410    1376.2444    164064.91    72.413543    72.413543    36.128129          120   -90137.817   -78997.587   -44406.688   -276.25292    7246.0251    -1888.062    72.413543    62.711968    36.128129   -71180.697   -308190.32 
     420    1411.0405    164063.57    72.413346    72.413346    36.128031          120    80885.225    77667.392    159697.72    3767.3347   -10110.422    2398.1652    72.413346    62.711797    36.128031    106083.45   -308261.57 
     430    1472.2875    164062.25    72.413152    72.413153    36.127934          120    72067.849    64280.896    143085.98    40.100831    -9074.936     2231.264    72.413152     62.71163    36.127934    93144.908   -308392.56 
     440    1389.4125    164060.96    72.412962    72.412963     36.12784          120   -95001.717   -85799.427   -55549.689    -3311.497    8839.4894     -1946.01    72.412962    62.711466     36.12784   -78783.611    -308204.7 
     450     1516.076    164059.69    72.412774    72.412775    36.127746          120    -12507.46   -5963.2267    42024.196    1885.3016   -51.209233    -890.4262    72.412774    62.711303    36.127746    7851.1697   -308481.33 
     460    1412.1294    164058.43    72.412589    72.412589    36.127653          120     121028.8    110349.73     192439.5    3213.1307   -14175.754    3754.9348    72.412589    62.711142    36.127653    141272.67   -308244.51 
     470    1518.6714     164057.2    72.412408    72.412408    36.127563          120   -10421.914   -9862.2427     35958.92   -2377.8679    382.51628    647.90775    72.412408    62.710985    36.127563    5224.9211   -308478.93 
     480    1449.8584    164055.98    72.412229     72.41223    36.127474          120   -93912.321   -79947.861   -61453.148   -2261.1185    9083.7023   -3620.9753    72.412229    62.710831    36.127474   -78437.777   -308319.57 
     490    1518.4378    164054.78    72.412053    72.412053    36.127386          120    78905.515    73881.822    132353.43    2575.4733   -9417.6835    1979.2903    72.412053    62.710678    36.127386    95046.923   -308466.84 
     500     1521.229     164053.6     72.41188     72.41188      36.1273          120    89977.624    81278.529    140561.02    552.11649   -10111.573     3795.227     72.41188    62.710528      36.1273    103939.06   -308468.69 
     510     1502.289    164052.45     72.41171    72.411711    36.127215          120   -88662.846   -74419.009   -64605.141    -3480.542    8424.2812   -3056.2619     72.41171    62.710381    36.127215   -75895.666   -308420.02 
     520    1608.5923    164051.31    72.411542    72.411543    36.127131          120   -22352.178   -15617.117    4335.1238   -542.43394    1278.3116   -1288.2741    72.411542    62.710236    36.127131    -11211.39   -308651.87 
     530    1499.3567    164050.18    72.411376    72.411377    36.127048          120    125942.64    113807.11    165720.69    1340.4084   -13914.542    4863.3541    72.411376    62.710092    36.127048    135156.82   -308403.11 
     540    1662.4745    164049.08    72.411214    72.411215    36.126968          120    2431.4037    8903.4233    25749.404   -1497.9752   -1337.8322    168.42008    72.411214    62.709951    36.126968     12361.41   -308760.12 
     550    1537.7069    164047.99    72.411054    72.411054    36.126888          120   -99735.687   -80632.148   -94770.044   -2234.5539     9285.218   -3330.2549    72.411054    62.709813    36.126888   -91712.626   -308478.03 
     560    1649.8644    164046.91    72.410895    72.410895    36.126808          120    71524.059    66664.498    86860.858    291.94738   -7581.7597    3099.1356    72.410895    62.709675    36.126808    75016.472    -308723.3 
     570    1615.0732    164045.84    72.410738    72.410738     36.12673          120    99781.649    95711.076    115475.44    57.093693    -11058.91    3205.5224    72.410738    62.709539     36.12673    103656.06   -308639.96 
     580    1614.9359     164044.8    72.410584    72.410584    36.126653          120   -79011.069   -57971.368    -87760.07   -1683.9382    7111.8848   -2799.2134    72.410584    62.709406    36.126653   -74914.169   -308637.59 
     590    1660.3766    164043.76    72.410431    72.410431    36.126577          120   -33928.616   -22998.605   -48344.391   -1053.0723    4563.2627   -130.51449    72.410431    62.709273    36.126577   -35090.537   -308734.64 
     600    1601.2721    164042.72    72.410278    72.410279    36.126501          120    125753.26    119402.49    122809.79   -215.89266   -11920.109    4316.2679    72.410278    62.709141    36.126501    122655.18   -308598.04 
     610    1692.4406     164041.7    72.410128    72.410129    36.126426          120    21662.693    32497.104    1878.2671    -849.0167   -1815.9353    140.57233    72.410128    62.709011    36.126426    18679.355   -308799.21 
     620     1585.801    164040.69     72.40998    72.409981    36.126352          120   -98541.813   -76598.929   -140308.68    -1873.647    11331.118   -2439.4498     72.40998    62.708883    36.126352   -105149.81   -308557.63 
     630    1707.4681    164039.68    72.409831    72.409832    36.126278          120    59901.811    62952.232    29882.467   -1495.8532   -3695.5372    2867.0486    72.409831    62.708754    36.126278     50912.17    -308824.2 
     640    1619.4303    164038.68    72.409684    72.409684    36.126204          120    113323.05    114279.05    82346.954   -882.25924    -8240.837    3800.9683    72.409684    62.708626    36.126204    103316.35   -308625.46 
     650    1673.9292    164037.69    72.409538    72.409539    36.126132          120   -61924.208   -42005.584   -123012.39   -1602.1724    8470.3037   -2088.1342    72.409538      62.7085    36.126132   -75647.395   -308743.05 
     660    1683.6183     164036.7    72.409393    72.409393    36.126059          120   -44440.205   -29388.177   -106062.54   -2385.6431    5687.1085   -411.28984    72.409393    62.708374    36.126059    -59963.64   -308760.73 
     670    1633.1086    164035.71    72.409246    72.409247    36.125986          120    124138.95    123571.04    79012.504   -1202.0565   -8172.6256    5732.4156    72.409246    62.708247    36.125986     108907.5   -308645.54 
     680    1720.1296    164034.72    72.409102    72.409102    36.125914          120    40685.844    50485.977   -27430.652   -888.06419    1270.1187    1803.7268    72.409102    62.708122    36.125914    21247.056   -308835.53 
     690    1618.6433    164033.74    72.408957    72.408958    36.125842          120   -94519.154   -74348.164   -184392.32   -2098.1165    9970.9284   -2973.0856    72.408957    62.707997    36.125842   -117753.21   -308607.43 
     700    1693.8232    164032.75    72.408811    72.408812    36.125769          120    47634.612    52907.691   -19811.206   -1298.5632   -3088.2049    3985.2951    72.408811    62.707871    36.125769    26910.366   -308773.13 
     710    1631.0506    164031.76    72.408665    72.408666    36.125696          120    121099.42    122097.06    54442.195   -215.73061   -4735.4828    6648.3412    72.408665    62.707744    36.125696    99212.893   -308629.91 
     720     1644.503    164030.78    72.408521    72.408521    36.125624          120   -46792.677   -30387.876   -147476.88   -1177.9301     8152.773   -1158.2258    72.408521    62.707619    36.125624   -74885.809   -308659.35 
     730    1627.5518    164029.78    72.408374    72.408375    36.125551          120   -53131.334    -40075.35   -149701.25   -1138.0215    3493.7805   -55.034358    72.408374    62.707492    36.125551    -80969.31   -308620.59 
     740    1589.1598    164028.78    72.408226    72.408227    36.125477          120    116529.53     114771.8    44326.238    429.25494   -5949.9324    7880.0298    72.408226    62.707364    36.125477    91875.857    -308531.8 
     750     1637.161    164027.77    72.408079    72.408079    36.125403          120    54595.981    61368.572   -36694.604   -214.04919    2276.8216    4100.4327    72.408079    62.707236    36.125403    26423.316   -308638.61 
     760    1519.2595    164026.77    72.407931    72.407931     36.12533          120   -93649.247   -76331.082   -209411.22   -1006.2039    8127.7434   -1672.1256    72.407931    62.707108     36.12533   -126463.85   -308374.77 
     770    1621.7061    164025.75     72.40778    72.407781    36.125254          120     31998.15    34256.346   -59498.726    522.32442    -2283.713    4858.8359     72.40778    62.706978    36.125254    2251.9234   -308600.01 
     780     1506.337    164024.72    72.407629    72.407629    36.125179          120    123410.94    121212.02    43507.985    461.97623   -3177.6029    7461.8826    72.407629    62.706847    36.125179     96043.65   -308342.33 
     790    1551.2702    164023.69    72.407477    72.407478    36.125103          120   -37653.842   -24917.652   -150346.21   -851.75466    7752.6609    1180.9695    72.407477    62.706715    36.125103   -70972.567   -308440.75 
     800    1531.2544    164022.64    72.407324    72.407324    36.125027          120   -66426.507    -56341.32   -180949.98    297.87036    4273.8645    1457.7498    72.407324    62.706582    36.125027   -101239.27   -308393.58 
     810    1479.2462    164021.58    72.407167    72.407168    36.124949          120    104836.44    101829.72    23920.271    618.81667   -4599.2392    6692.6315    72.407167    62.706447    36.124949    76862.143   -308276.33 
     820    1554.3003    164020.51     72.40701    72.407011     36.12487          120    63054.901    66033.166   -30579.262   -823.92575    2174.0037    4549.3612     72.40701    62.706311     36.12487    32836.268   -308440.84 
     830    1436.2515    164019.44    72.406852    72.406853    36.124791          120   -94259.343   -82559.172   -218744.92    260.59674    9158.7291     990.7015    72.406852    62.706174    36.124791   -131854.48   -308175.14 
     840     1547.487    164018.34    72.406691    72.406692    36.124711          120    13669.249    17660.233   -82421.063    1280.7135     -495.127    3697.3219    72.406691    62.706035    36.124711   -17030.527   -308421.62 
     850    1428.6134    164017.24    72.406528    72.406529     36.12463          120    119304.64    119396.29    42874.339    -1022.351   -3417.1851    5600.2563    72.406528    62.705893     36.12463    93858.422    -308152.6 
     860     1524.728    164016.13    72.406365    72.406365    36.124548          120   -25836.678   -20686.471   -136715.38   -498.67933    6632.3153    2666.2029    72.406365    62.705752    36.124548   -61079.509    -308364.6 
     870    1438.9495       164015    72.406199      72.4062    36.124465          120   -76805.766   -69211.971   -192610.96    2319.0981    5980.8246    1132.5732    72.406199    62.705608    36.124465   -112876.23   -308171.99 
     880    1473.2515    164013.85     72.40603    72.406031    36.124381          120    89584.142    94863.824    13439.697   -300.18184   -3758.6779    4932.4107     72.40603    62.705462    36.124381    65962.554   -308244.17 
     890    1498.0122     164012.7     72.40586    72.405861    36.124297          120     72594.49    74977.368   -11257.073   -1865.5015   -204.32651    4716.0546     72.40586    62.705315    36.124297    45438.262   -308296.72 
     900    1408.9323    164011.54     72.40569    72.405691    36.124212          120   -86299.823   -82161.568   -207055.51    1728.0274    8336.0906    284.40062     72.40569    62.705168    36.124212    -125172.3    -308096.3 
     910    1539.8485    164010.36    72.405516    72.405517    36.124125          120   -1326.4256    7132.4615   -96987.812    1508.2871    1138.5413    2629.9589    72.405516    62.705017    36.124125   -30393.925   -308383.06 
     920    1413.4121    164009.17    72.405341    72.405342    36.124037          120    119539.77    125397.43    54521.354    -2036.406   -5004.8893    5929.6857    72.405341    62.704865    36.124037    99819.519   -308097.74 
     930    1541.5153    164007.98    72.405166    72.405166     36.12395          120   -8486.4959   -5995.2175   -108765.12   -344.08887    4025.3515    2135.9658    72.405166    62.704714     36.12395   -41082.278   -308380.24 
     940    1459.1754    164006.77    72.404989    72.404989    36.123862          120   -78970.557   -73130.121   -197119.11    2421.7789    6828.6716    286.63244    72.404989     62.70456    36.123862    -116406.6   -308190.84 
     950    1536.8807    164005.55    72.404809     72.40481    36.123772          120    84037.491    92159.604    14209.548   -959.15312    -4297.789    4419.4477    72.404809    62.704405    36.123772    63468.881   -308359.82 
     960    1529.4634    164004.33    72.404629     72.40463    36.123682          120    86298.696    91334.705    16963.637   -2194.2219   -2898.8445    3935.8415    72.404629    62.704249    36.123682    64865.679   -308338.43 
     970    1528.3643    164003.11     72.40445     72.40445    36.123593          120       -72972   -69968.959   -190587.57    2062.8698    7008.1479    473.94045     72.40445    62.704093    36.123593   -111176.18   -308330.42 
     980    1599.9264    164001.88    72.404268    72.404269    36.123502          120   -5322.3413    706.76368   -100832.99    1209.7304    869.57855    1741.9736    72.404268    62.703936    36.123502   -35149.521   -308485.52 
     990    1528.2759    164000.64    72.404085    72.404086    36.123411          120     125412.4    132624.77    73003.242    -3442.393   -6492.7875    2862.1377    72.404085    62.703778    36.123411     110346.8   -308320.45 
    1000    1651.4195     163999.4    72.403904    72.403904     36.12332          120    11395.555    15000.169   -77416.032   -50.729274    1134.0542     1952.174    72.403904    62.703621     36.12332   -17006.769   -308589.78 
    1010    1549.9354    163998.16    72.403722    72.403722     36.12323          120    -71609.91   -69025.863    -188298.6    3834.7344    4606.7547     1797.787    72.403722    62.703463     36.12323   -109644.79   -308360.34 
    1020    1641.9363    163996.92    72.403538    72.403539    36.123138          120    82350.963    89078.279     18299.54    -2169.476    -3974.459    1037.0809    72.403538    62.703304    36.123138    63242.927   -308559.74 
    1030    1618.6679    163995.68    72.403356    72.403356    36.123047          120    103515.14    109740.07    49331.762    -3925.206   -4324.8071    1538.7678    72.403356    62.703146    36.123047    87528.991   -308503.24 
    1040    1600.2487    163994.45    72.403175    72.403175    36.122957          120   -53598.369   -52665.519   -159971.09    3362.3208    2893.8361    3290.2108    72.403175    62.702989    36.122957   -88744.991   -308459.68 
    1050    1660.0641    163993.22    72.402993    72.402994    36.122866          120   -7282.9093   -4000.4959   -99229.423    1782.1425    591.26156    1453.2553    72.402993    62.702832    36.122866   -36837.609   -308588.04 
    1060    1594.2595    163991.98    72.402812    72.402813    36.122776          120    133285.79     141239.4    91195.501   -5620.9705   -4794.4328    177.24841    72.402812    62.702675    36.122776     121906.9   -308437.21 
    1070     1672.006    163990.77    72.402633    72.402634    36.122687          120    35210.447    38153.644   -35119.655   -982.03624   -1030.1856    2476.7965    72.402633     62.70252    36.122687    12748.145   -308608.15 
    1080    1594.6369    163989.56    72.402456    72.402456    36.122598          120   -66277.014   -67497.478   -169538.38    4648.9786    1478.3428    2145.3348    72.402456    62.702367    36.122598   -101104.29   -308431.14 
    1090    1667.8844    163988.36    72.402278    72.402279    36.122509          120    80498.024    86241.564    23556.811   -2855.4421   -2683.4516   -32.044996    72.402278    62.702213    36.122509    63432.133   -308590.67 
    1100    1623.5027    163987.17    72.402103    72.402104    36.122422          120    121990.89    129605.33    83165.886   -5198.2303   -2158.8494    1007.2365    72.402103    62.702061    36.122422    111587.37   -308488.75 
    1110    1630.5275       163986    72.401931    72.401931    36.122336          120   -39524.271   -40443.881   -122007.47    3038.6718   -15.911376    1704.1047    72.401931    62.701912    36.122336   -67325.208   -308499.98 
    1120    1673.3141    163984.83    72.401759     72.40176    36.122251          120   -12049.389   -11648.368   -87295.415    2136.9862   -2691.1005    184.68243    72.401759    62.701764    36.122251   -36997.724    -308592.6 
    1130    1587.1647    163983.68     72.40159     72.40159    36.122166          120    138976.24    148249.84    107270.74   -5071.2585   -1319.9486    861.15719     72.40159    62.701617    36.122166    131498.94   -308397.02 
    1140    1708.4826    163982.55    72.401423    72.401424    36.122083          120    54006.495    58762.819    6186.5429    -1449.137    758.98485    1199.6955    72.401423    62.701473    36.122083    39651.952   -308663.09 
    1150    1577.5388    163981.44     72.40126    72.401261    36.122001          120   -65515.593   -68083.054   -139389.49    4019.0018   -3524.3969    166.93376     72.40126    62.701331    36.122001   -90996.046   -308369.39 
    1160    1680.0762    163980.34    72.401098    72.401099    36.121921          120    74259.081    79815.229    33045.615   -1537.8146   -2806.5084    858.13157    72.401098    62.701191    36.121921    62373.308   -308594.33 
    1170    1619.8397    163979.26    72.400939     72.40094    36.121841          120    135103.51    144459.34    110235.18   -3894.6083    2630.1054     613.3044    72.400939    62.701053    36.121841    129932.68   -308455.83 
    1180    1625.8631    163978.21    72.400785    72.400785    36.121764          120   -26348.455   -26174.713   -79948.194    1531.8895   -850.81669    131.52796    72.400785     62.70092    36.121764    -44157.12   -308468.03 
    1190    1645.0486    163977.18    72.400633    72.400633    36.121688          120   -23459.667   -21686.254   -72051.574    1156.4248   -5718.2462    1044.8265    72.400633    62.700788    36.121688   -39065.832   -308507.74 
    1200    1584.4171    163976.16    72.400483    72.400484    36.121614          120    138304.79    147973.81    119649.27   -3301.1636    788.32706    173.69525    72.400483    62.700658    36.121614    135309.29   -308368.67 
    1210    1667.0916    163975.17    72.400338    72.400339    36.121541          120    72906.981    77638.886    43795.682   -1359.7453    2624.9712    323.59771    72.400338    62.700533    36.121541    64780.516   -308552.06 
    1220    1536.1366    163974.21    72.400197    72.400198    36.121471          120    -68598.12   -67708.821   -114156.15    1483.8029   -5296.4261    2125.8632    72.400197     62.70041    36.121471   -83487.697   -308256.83 
    1230    1674.3477    163973.27    72.400058    72.400059    36.121402          120    59775.527    68177.429    38587.627   -1552.9059   -3802.4584    543.29283    72.400058     62.70029    36.121402    55513.527    -308561.5 
    1240     1540.684    163972.35    72.399923    72.399924    36.121334          120    143707.26    152060.29    133945.49   -2411.1566    2436.9777    184.90363    72.399923    62.700173    36.121334    143237.68   -308261.49 
    1250    1635.2159    163971.47    72.399793    72.399794     36.12127          120   -15641.053   -14587.802   -48390.017    635.73634   -1824.4017    2688.5277    72.399793    62.700061     36.12127   -26206.291   -308468.22 
    1260    1597.1844    163970.61    72.399666    72.399667    36.121206          120   -39122.818   -33877.993   -66758.405     365.0333   -6537.1858    1813.0314    72.399666    62.699951    36.121206   -46586.405   -308379.68 
    1270    1579.2422    163969.77    72.399542    72.399543    36.121144          120    129305.23    140904.42    130025.08   -1958.5411   -1291.5338    63.186748    72.399542    62.699844    36.121144    133411.58    -308336.4 
    1280    1655.7828    163968.96    72.399423    72.399424    36.121085          120    82961.975    87322.642     71531.44   -418.85658   -120.95581    1805.3338    72.399423    62.699741    36.121085    80605.352   -308502.31 
    1290    1549.5693    163968.18    72.399309    72.399309    36.121028          120   -68843.926   -68905.656   -99629.176    1889.0512    -5495.077    1582.5996    72.399309    62.699641    36.121028   -79126.253   -308262.65 
    1300     1663.471    163967.42    72.399197    72.399197    36.120972          120    40166.836    51102.471    37638.678   -166.83369   -4792.6103    222.35294    72.399197    62.699544    36.120972    42969.328    -308513.5 
    1310    1561.5588    163966.68    72.399089    72.399089    36.120918          120    141006.22    152337.84     150087.1   -1729.5288   -1749.9315    1524.0022    72.399089    62.699451    36.120918    147810.39    -308281.3 
    1320      1651.45    163965.98    72.398986    72.398986    36.120867          120   -3601.6709   -5778.1065    -25241.19    1515.3941   -3492.1472    290.79494    72.398986    62.699361    36.120867   -11540.322   -308479.61 
    1330    1577.1603    163965.31    72.398886    72.398887    36.120817          120   -51869.052   -47475.792   -69109.905    2466.5888   -4906.6757   -455.72593    72.398886    62.699275    36.120817   -56151.583   -308310.91 
    1340    1625.1974    163964.65    72.398789     72.39879    36.120769          120    113741.27    129959.21    127730.37     -1928.71   -3731.5043    2372.3903    72.398789    62.699191    36.120769    123810.28    -308413.2 
    1350    1628.3609    163964.02    72.398697    72.398698    36.120723          120    93510.838    96917.339    90506.851   -835.80549   -3226.7973     923.6973    72.398697    62.699112    36.120723    93645.009   -308417.65 
    1360    1571.8052    163963.43     72.39861     72.39861    36.120679          120    -65329.97   -68926.143   -93982.895    3653.5418   -3538.5266   -1741.8897     72.39861    62.699036    36.120679   -76079.669   -308288.62 
    1370    1669.7643    163962.85    72.398525    72.398525    36.120637          120    20930.613    33994.509    19596.089     182.0311   -3918.7634    1721.3052    72.398525    62.698962    36.120637    24840.404   -308501.96 
    1380    1564.7026     163962.3    72.398443    72.398444    36.120596          120    142271.57    153958.46    152376.76   -2644.2713   -3373.3812    2499.7533    72.398443    62.698892    36.120596     149535.6   -308265.09 
    1390    1660.2382    163961.78    72.398367    72.398367    36.120558          120    9447.3074    3749.5483   -15325.351    2444.7318   -3689.1483   -1404.3398    72.398367    62.698825    36.120558   -709.49858   -308473.97 
    1400    1604.0141    163961.28    72.398293    72.398294    36.120521          120   -60663.831   -57705.535   -87494.804    2978.0741   -4580.1844   -666.04607    72.398293    62.698762    36.120521    -68621.39   -308344.22 
    1410    1630.3028     163960.8    72.398222    72.398223    36.120486          120    104693.24     119317.2     108843.8   -2170.6762   -3276.6266    2015.9347    72.398222      62.6987    36.120486    110951.41   -308399.81 
    1420    1659.3621    163960.35    72.398156    72.398156    36.120453          120    104740.17    105161.83    94171.924    217.07382   -3444.3623   -50.444933    72.398156    62.698643    36.120453    101357.97   -308459.55 
    1430    1615.3675    163959.92    72.398093    72.398094    36.120421          120   -59358.063   -66517.195   -103613.13    4090.0048   -6305.3452   -2236.1391    72.398093    62.698589    36.120421   -76496.129   -308357.38 
    1440     1695.075    163959.51    72.398033    72.398033    36.120391          120    9914.1767    19398.323   -11912.847   -289.90978   -4832.7467   -326.96339    72.398033    62.698536    36.120391    5799.8842   -308531.71 
    1450     1622.289    163959.12    72.397975    72.397975    36.120362          120     141178.8    149864.01     138485.1   -1700.4509   -2427.5001    671.72028    72.397975    62.698486    36.120362    143175.97   -308363.77 
    1460    1719.3543    163958.76    72.397922    72.397922    36.120336          120    22447.904    14580.268   -18259.929    2905.6123   -5856.9474   -1606.2329    72.397922     62.69844    36.120336    6256.0809   -308576.19 
    1470    1638.0431    163958.41    72.397871    72.397871    36.120311          120   -62917.762   -65175.358   -117556.67    1732.4516   -7150.9073   -2322.3504    72.397871    62.698396    36.120311   -81883.263   -308392.25 
    1480    1700.3343    163958.08    72.397822    72.397822    36.120286          120    91168.231    102951.77    76586.242   -2822.6188   -2691.9058     238.0963    72.397822    62.698353    36.120286    90235.413   -308525.42 
    1490    1700.2569    163957.76    72.397776    72.397776    36.120263          120    110712.43    113000.35    87892.392   -570.41969   -3426.0968  -0.48751783    72.397776    62.698314    36.120263    103868.39   -308521.87 
    1500    1642.4385    163957.47    72.397733    72.397734    36.120242          120   -51043.653   -61223.397   -120264.26    2846.2274   -7017.6852   -2318.4522    72.397733    62.698277    36.120242   -77510.435   -308390.46 
    1510    1745.8039    163957.19    72.397692    72.397692    36.120221          120   -3371.6517   -672.36776   -51964.843    -1423.764   -4149.1578   -1156.1516    72.397692    62.698241    36.120221   -18669.621   -308616.33 
    1520    1625.5451    163956.92    72.397652    72.397652    36.120201          120    133771.73       145483    117880.78   -4209.1665   -2307.6568    790.51361    72.397652    62.698206    36.120201     132378.5   -308345.22 
    1530     1748.137    163956.67    72.397615    72.397616    36.120183          120    31581.136    28173.158   -22015.811    268.13252   -4830.3394   -820.12516    72.397615    62.698175    36.120183    12579.495   -308615.34 
    1540    1643.5069    163956.44    72.397581    72.397581    36.120166          120   -67435.031   -78164.297   -149217.13    2002.0067   -5065.1587   -2184.7132    72.397581    62.698145    36.120166   -98272.152   -308377.58 
    1550    1728.4094    163956.21    72.397546    72.397547    36.120149          120    79177.079    86123.481     41059.24   -3891.5956   -3167.0603   -34.925544    72.397546    62.698115    36.120149      68786.6   -308563.62 
    1560    1689.5025    163955.99    72.397514    72.397515    36.120133          120    111564.31    120099.59    78943.254   -4462.5291   -3352.4683    488.62559    72.397514    62.698087    36.120133    103535.72   -308472.81 
    1570    1693.8222    163955.79    72.397485    72.397485    36.120118          120   -48066.734   -58082.408   -131830.48    2027.6841   -4211.4489   -1773.0868    72.397485    62.698061    36.120118   -79326.543   -308477.97 
    1580     1740.859    163955.58    72.397455    72.397456    36.120103          120   -14504.685    -20439.67   -90175.916    586.30058   -4662.5849   -1444.0633    72.397455    62.698036    36.120103   -41706.757   -308579.87 
    1590    1654.1532    163955.39    72.397426    72.397426    36.120088          120    128096.31    137238.95    94046.937   -5476.3146   -3602.8107    464.26051    72.397426    62.698011    36.120088    119794.07   -308381.81 
    1600    1785.4979    163955.21    72.397399      72.3974    36.120075          120    38311.347    38416.981   -24010.928   -2163.4389   -2677.8737   -969.77766    72.397399    62.697987    36.120075    17572.467   -308670.64 
    1610    1635.7982    163955.03    72.397373    72.397374    36.120062          120   -73027.695   -83189.658      -171776    3169.3764   -4372.3603   -1892.4394    72.397373    62.697965    36.120062   -109331.12   -308334.71 
    1620    1769.0798    163954.85    72.397347    72.397347    36.120049          120    66294.141     68301.13     7962.922   -1376.1171   -5178.4095   -524.65698    72.397347    62.697942    36.120049    47519.398   -308627.36 
    1630    1679.1154    163954.68    72.397322    72.397322    36.120036          120    117081.79    122240.23    72307.638   -4978.9709   -3021.3305   -1080.6457    72.397322     62.69792    36.120036    103876.55   -308423.21 
    1640    1708.6837    163954.52    72.397298    72.397299    36.120025          120   -40349.768   -46036.715   -134696.97    694.79306   -2793.4119   -1883.4159    72.397298      62.6979    36.120025   -73694.484   -308487.79 
    1650    1712.3689    163954.36    72.397274    72.397275    36.120013          120   -29132.094   -33094.114   -121608.27    3099.5714   -5270.3224    -453.1738    72.397274    62.697879    36.120013   -61278.159    -308491.8 
    1660    1666.0212    163954.19     72.39725    72.397251    36.120001          120    125651.36    130195.87    77645.423   -3734.3401    -4515.114   -1455.0444     72.39725    62.697859    36.120001    111164.22    -308385.4 
    1670    1729.2611    163954.04    72.397228    72.397229     36.11999          120    52378.819    53326.466   -18820.195   -3393.5284   -3080.5996   -2841.1372    72.397228    62.697839     36.11999    28961.697   -308524.64 
    1680    1628.2503     163953.9    72.397207    72.397207    36.119979          120    -74833.05   -81247.524   -186527.53    3098.3948   -3445.9834   -436.99531    72.397207    62.697821    36.119979    -114202.7   -308295.97 
    1690    1732.2067    163953.74    72.397184    72.397185    36.119968          120    56443.266    56442.022   -19180.174   -573.90938    -3967.005   -534.37276    72.397184    62.697801    36.119968    31235.038   -308525.09 
    1700    1626.5822     163953.6    72.397162    72.397163    36.119957          120    126074.36    131356.86    71313.545   -5154.5679   -4053.9414   -3250.7595    72.397162    62.697782    36.119957    109581.59   -308287.14 
    1710    1699.1833    163953.46    72.397142    72.397143    36.119947          120   -30324.289    -33132.45   -130677.95   -1056.9875   -2932.2484     -2575.85    72.397142    62.697765    36.119947   -64711.564   -308444.91 
    1720    1660.7537    163953.32    72.397122    72.397123    36.119937          120   -36416.712   -41645.869   -143168.46    585.27365   -1352.9818    212.19561    72.397122    62.697747    36.119937   -73743.681      -308357 
    1730    1641.6599    163953.18    72.397101    72.397102    36.119926          120    123870.71    128519.89    61711.031   -3943.6165   -2747.3547   -1161.9107    72.397101    62.697729    36.119926    104700.54   -308311.38 
    1740    1705.3088    163953.05    72.397082    72.397082    36.119917          120     65409.48    68562.819   -10030.596   -3888.1656   -3457.6097   -3693.3416    72.397082    62.697713    36.119917    41313.901   -308449.11 
    1750    1605.2777    163952.93    72.397064    72.397064    36.119908          120   -72044.728   -77430.635   -187294.54   -1119.0275   -1128.3158   -1338.8619    72.397064    62.697697    36.119908   -112256.63   -308224.58 
    1760    1697.1327    163952.79    72.397044    72.397045    36.119898          120     46444.74    46156.823   -41444.166   -2835.5725   -632.79907    1529.0328    72.397044     62.69768    36.119898    17052.466   -308425.68 
    1770    1626.3211    163952.67    72.397026    72.397026    36.119889          120    133849.46    139375.48    71762.026   -3440.0901   -2079.5053    -1439.185    72.397026    62.697664    36.119889    114995.66   -308263.39 
    1780    1666.0056    163952.55    72.397009    72.397009     36.11988          120   -16603.905   -17039.952   -115523.12   -2301.2261   -2029.7593   -2364.0256    72.397009     62.69765     36.11988   -49722.326   -308349.97 
    1790    1647.0421    163952.44    72.396992    72.396993    36.119872          120   -44638.471   -48336.861      -154028    -3377.232   -721.06063    2078.2388    72.396992    62.697635    36.119872   -82334.445    -308303.9 
    1800      1644.34    163952.32    72.396975    72.396975    36.119863          120    119989.55    123138.65    51129.894   -2876.7891   -298.85693     1250.488    72.396975     62.69762    36.119863    98086.033   -308292.82 
    1810    1689.2312    163952.22    72.396959     72.39696    36.119856          120    83031.779    86681.201    7265.7492   -1153.3375   -1049.9422   -1348.8511    72.396959    62.697607    36.119856     58992.91   -308390.15 
    1820    1610.6156    163952.12    72.396945    72.396946    36.119849          120   -69459.956   -71606.929   -181375.07   -2690.1604   -815.44291    1820.0198    72.396945    62.697594    36.119849   -107480.65   -308210.42 
    1830    1728.0693    163952.02     72.39693    72.396931    36.119841          120    34202.919    34369.667   -53623.259   -3400.5411    161.58848    2222.1249     72.39693    62.697582    36.119841    4983.1093   -308467.71 
    1840    1618.1875    163951.93    72.396916    72.396917    36.119834          120    141348.75    145641.91    80315.971   -427.72884   -638.76165   -708.16031    72.396916    62.697569    36.119834    122435.54   -308219.45 
    1850    1719.4511    163951.85    72.396905    72.396905    36.119829          120   -2122.4596   -1699.7783   -96940.947   -146.80164   -710.81044    1639.8486    72.396905    62.697559    36.119829   -33587.728    -308440.2 
    1860    1672.0875    163951.77    72.396894    72.396894    36.119823          120   -53586.929    -53816.05   -159190.56     -2385.23    915.15164    3018.5681    72.396894     62.69755    36.119823   -88864.514    -308330.8 
    1870    1675.6007    163951.69    72.396882    72.396883    36.119817          120    112895.79    116430.52    49453.141   -805.07356   -32.387134   -1031.8161    72.396882     62.69754    36.119817    92926.481   -308334.79 
    1880    1739.5154    163951.63    72.396873    72.396873    36.119812          120    95967.986    97870.336    28702.798    851.38201   -2090.3494    203.85651    72.396873    62.697531    36.119812    74180.373   -308471.92 
    1890     1644.074    163951.58    72.396865    72.396866    36.119809          120   -64789.335   -63986.597   -170809.93   -495.26926    554.14943    3414.7537    72.396865    62.697525    36.119809   -99861.955   -308256.01 
    1900    1760.2042    163951.52    72.396857    72.396858    36.119805          120    20896.999    24348.841   -60369.336   -266.93476    2609.5674   -412.60125    72.396857    62.697518    36.119805   -5041.1651   -308511.48 
    1910    1647.9982    163951.48     72.39685    72.396851    36.119801          120     142008.3    144086.43    93016.933    753.55991   -2277.8291   -1192.4138     72.39685    62.697512    36.119801    126370.56   -308255.74 
    1920     1759.293    163951.45    72.396846    72.396847    36.119799          120    12411.072    13736.657   -69941.231   -39.532907   -2120.3432    1882.7656    72.396846    62.697508    36.119799   -14597.834   -308501.71 
    1930    1655.4085    163951.43    72.396843    72.396843    36.119798          120   -61726.989   -55821.952    -158603.9    771.47168    4014.7647    804.25549    72.396843    62.697506    36.119798   -92050.948   -308266.61 
    1940    1732.9623     163951.4     72.39684     72.39684    36.119796          120    102671.95    105991.92    50197.004     1605.085    568.15465   -582.56325     72.39684    62.697503    36.119796    86286.959   -308434.56 
    1950     1709.471     163951.4    72.396839     72.39684    36.119796          120    107790.79    108119.97    55945.857    245.64379   -3676.9916      325.913    72.396839    62.697502    36.119796    90618.874   -308379.75 
    1960    1669.6749    163951.41    72.396841    72.396841    36.119797          120    -60097.52   -53359.112   -149902.61    451.80436    1369.0629    1025.4075    72.396841    62.697504    36.119797   -87786.414   -308287.62 
    1970    1764.9374    163951.43    72.396843    72.396844    36.119798          120    4778.0484    12540.308    -64196.92    2653.8213    2924.4444    1511.2463    72.396843    62.697506    36.119798   -15626.188   -308495.35 
    1980      1641.86    163951.45    72.396847    72.396847    36.119799          120    143857.47    145122.43    107030.12    2069.9276   -2828.3347    496.59095    72.396847    62.697509    36.119799    132003.34   -308218.14 
    1990    1774.3381     163951.5    72.396853    72.396854    36.119803          120    25562.769    28324.459   -38616.822   -95.989418     -2019.63    672.76129    72.396853    62.697515    36.119803    5090.1353   -308509.76 
    2000    1658.2567    163951.55    72.396862    72.396862    36.119807          120   -69831.244   -61116.775   -150061.35    1288.6392    1899.4932    3153.8754    72.396862    62.697522    36.119807   -93669.791   -308246.89 
    2010    1743.0664    163951.62    72.396871    72.396871    36.119811          120     92644.06    98189.897     50853.05    3644.8454   -1351.4347    2216.9399    72.396871     62.69753    36.119811    80562.336   -308433.67 
    2020    1697.9167     163951.7    72.396882    72.396883    36.119817          120    117627.92     118761.1    79524.289    2042.5973   -2870.0755    655.98563    72.396882     62.69754    36.119817    105304.44   -308328.32 
    2030    1701.7794     163951.8    72.396897    72.396898    36.119825          120   -50400.482    -47211.65   -125187.06   -1336.0208   -904.74129     3318.779    72.396897    62.697553    36.119825   -74266.398   -308333.88 
    2040    1723.2889    163951.91    72.396913    72.396914    36.119833          120   -6360.1741    722.04809   -65749.089    1292.1759   -1078.0137     3814.129    72.396913    62.697567    36.119833   -23795.738   -308379.34 
    2050    1666.3234    163952.03    72.396931    72.396932    36.119842          120    142006.09    146757.34    117273.97    5006.4672   -1232.5556     1127.211    72.396931    62.697582    36.119842     135345.8   -308247.88 
    2060    1751.0182    163952.17    72.396953    72.396953    36.119852          120    42350.487    42164.573   -8451.1843   -752.29747   -2285.5123     2477.027    72.396953    62.697601    36.119852    25354.625   -308433.77 
    2070    1641.0759    163952.34    72.396977    72.396977    36.119864          120   -66877.002   -63700.596   -140639.78   -3767.1484   -3123.6324      3444.72    72.396977    62.697622    36.119864   -90405.792   -308186.55 
    2080    1742.1147    163952.51    72.397002    72.397002    36.119877          120    81004.831    88722.647    47872.994    3940.3488    16.861019    1624.6692    72.397002    62.697643    36.119877    72533.491   -308406.89 
    2090    1681.1748     163952.7     72.39703    72.397031    36.119891          120    127173.92     131399.9    104353.44    2724.1131   -1035.2731     1983.496     72.39703    62.697668    36.119891    120975.75   -308267.71 
    2100    1693.5082    163952.92    72.397063    72.397063    36.119907          120   -35928.993   -36149.795   -101737.61   -5759.2957    -5062.084     1729.669    72.397063    62.697696    36.119907     -57938.8   -308292.18 
    2110    1728.9609    163953.15    72.397097    72.397097    36.119924          120   -15053.413   -10426.151   -71531.528   -1441.2423   -1904.9838    925.34705    72.397097    62.697726    36.119924   -32337.031    -308366.2 
    2120    1669.1572     163953.4    72.397133    72.397134    36.119942          120    138590.62    148613.28     126290.1     4102.819    844.15418    2097.6336    72.397133    62.697757    36.119942    137831.33   -308229.58 
    2130    1749.5866    163953.68    72.397174    72.397174    36.119963          120    56676.512    60448.532    20310.656   -2474.6291   -3541.8556    878.99909    72.397174    62.697792    36.119963      45811.9   -308404.99 
    2140    1667.1574    163953.97    72.397218    72.397218    36.119985          120   -64335.535   -65804.074   -135274.94    -5690.755   -5458.8523   -882.86249    72.397218     62.69783    36.119985   -88471.515   -308216.52 
    2150    1745.2178    163954.28    72.397263    72.397264    36.120007          120    71078.326    78844.908    42799.537    956.52797   -368.88409    1634.3298    72.397263     62.69787    36.120007    64240.924   -308387.38 
    2160    1692.6393    163954.62    72.397313    72.397313    36.120032          120    132451.14     143142.6    123144.63    1348.0398   -113.07075    1314.8357    72.397313    62.697912    36.120032    132912.79   -308265.89 
    2170    1721.1326    163954.98    72.397366    72.397367    36.120059          120   -24103.186   -26098.699   -83746.166   -3927.7224   -5113.1231   -1574.9278    72.397366    62.697959    36.120059    -44649.35      -308325 
    2180    1731.7791    163955.36    72.397422    72.397423    36.120087          120   -20699.865   -22192.389   -77858.258   -3220.3716   -4420.1916   -175.34258    72.397422    62.698007    36.120087   -40250.171   -308346.48 
    2190    1680.2805    163955.76     72.39748    72.397481    36.120116          120     132718.8    143411.42    126061.13    407.97778    134.83241    1940.0501     72.39748    62.698058    36.120116    134063.78   -308226.77 
    2200    1780.8843    163956.18    72.397543    72.397544    36.120147          120    69871.136    74248.967    40273.673    390.64085   -1187.8828   -196.01249    72.397543    62.698112    36.120147    61464.592   -308446.73 
    2210    1649.7774    163956.64     72.39761     72.39761     36.12018          120    -60452.87   -66921.418   -132130.34   -2328.7061   -5404.4343   -2029.1797     72.39761     62.69817     36.12018   -86501.542   -308152.63 
    2220    1774.9425     163957.1    72.397678    72.397678    36.120214          120    59739.494    62357.626    29697.911   -2876.1649   -2969.4736    1179.4523    72.397678    62.698229    36.120214    50598.343   -308426.91 
    2230    1681.6852    163957.59     72.39775     72.39775     36.12025          120    138007.15    146419.07    130694.71    163.07847   -39.446999    2088.0742     72.39775    62.698291     36.12025    138373.64   -308215.07 
    2240    1726.3518     163958.1    72.397826    72.397826    36.120288          120   -11157.073   -13237.236   -67406.896    1678.0005   -3239.3588   -1419.0747    72.397826    62.698357    36.120288   -30600.402   -308312.64 
    2250    1719.2854    163958.64    72.397905    72.397905    36.120327          120   -30599.198   -35583.206   -90974.756   -2131.2098   -4622.5503    -1258.846    72.397905    62.698425    36.120327    -52385.72   -308292.36 
    2260    1691.0054    163959.19    72.397986    72.397986    36.120368          120     128321.3    134652.57    116913.63   -3105.3451   -1451.6266    2556.5101    72.397986    62.698495    36.120368    126629.17   -308225.31 
    2270    1760.5873    163959.77    72.398071    72.398072     36.12041          120    83457.725    87536.296    57139.018    1394.5697   -1706.7153    1150.5338    72.398071    62.698569     36.12041    76044.346   -308377.49 
    2280    1660.1026    163960.38     72.39816    72.398161    36.120455          120   -60283.963   -67616.925   -131307.95    1806.8182   -4029.2383   -2466.2603     72.39816    62.698647    36.120455   -86402.946   -308148.65 
    2290    1791.9812    163960.99    72.398251    72.398252      36.1205          120    48516.534    48580.728    9224.5482   -3635.7127   -2997.8132    27.975482    72.398251    62.698725      36.1205    35440.603   -308438.89 
    2300    1661.9567    163961.63    72.398345    72.398346    36.120547          120    142448.13    149772.37     132750.4   -2533.0871   -1775.8462    2160.3603    72.398345    62.698807    36.120547    141656.96   -308144.95 
    2310    1783.5116    163962.31    72.398444    72.398445    36.120596          120   -624.16963   -4628.7087   -53151.435    2003.0767    -3403.197   -1578.4753    72.398444    62.698892    36.120596   -19468.104   -308411.26 
    2320    1703.7767    163962.99    72.398545    72.398546    36.120647          120   -38440.874   -45861.333   -108561.82   -413.09784   -3748.2748   -2964.2902    72.398545     62.69898    36.120647   -64288.008   -308230.78 
    2330    1733.1256    163963.69    72.398648    72.398649    36.120698          120    121988.33     127368.3    101070.99   -4163.2151   -2353.8827    711.88936    72.398648    62.699069    36.120698    116809.21   -308292.07 
    2340    1770.4016    163964.42    72.398755    72.398756    36.120752          120    92567.584    95251.507    67666.415   -2209.2791   -3548.1852    132.34624    72.398755    62.699162    36.120752    85161.836   -308370.38 
    2350    1688.3613    163965.17    72.398866    72.398867    36.120807          120   -55627.853   -65353.589    -132238.8    653.28383    -4512.003   -3655.8019    72.398866    62.699258    36.120807   -84406.749   -308185.31 
    2360    1791.5377    163965.94    72.398979    72.398979    36.120863          120    36334.816    34032.372   -17333.658   -1599.0609   -2318.6176   -2092.6923    72.398979    62.699355    36.120863    17677.843   -308411.32 
    2370    1692.4795    163966.72    72.399094    72.399094    36.120921          120    142647.31    149211.85    128733.36   -4586.6695   -3748.4194    979.13029    72.399094    62.699455    36.120921    140197.51   -308185.74 
    2380    1785.2171    163967.53    72.399213    72.399213     36.12098          120    10170.811    7629.7205   -43493.893   -2487.2265   -6138.4106   -1885.3983    72.399213    62.699558     36.12098   -8564.4539   -308390.51 
    2390    1703.4823    163968.35    72.399334    72.399335    36.121041          120   -47011.706   -54973.748   -127896.39    799.75419   -2793.0679   -4022.5417    72.399334    62.699664    36.121041   -76627.281   -308204.05 
    2400     1771.278    163969.19    72.399457    72.399458    36.121102          120    111888.99    113742.17    81170.229   -2580.3517   -2746.5637   -383.12808    72.399457     62.69977    36.121102    102267.13   -308350.65 
    2410    1748.8037    163970.05    72.399584    72.399584    36.121165          120    100412.74    105322.23    73357.647   -4919.9509   -6790.6052   -624.08023    72.399584    62.699879    36.121165     93030.87   -308297.45 
    2420    1731.4619    163970.93    72.399714    72.399714     36.12123          120   -56782.821   -59867.511   -135477.78   -404.38501   -4717.1667   -3639.7265    72.399714    62.699992     36.12123   -84042.705    -308254.5 
    2430    1801.9045    163971.82    72.399844    72.399845    36.121295          120    19488.972    15140.667   -42695.281    605.19916   -1413.6654     -1983.58    72.399844    62.700105    36.121295   -2688.5473    -308407.2 
    2440    1713.4779    163972.72    72.399977    72.399978    36.121361          120    142192.87    145815.96     121000.7    -4336.238   -5176.3856   -1155.8824    72.399977     62.70022    36.121361    136336.51   -308207.06 
    2450    1814.3625    163973.65    72.400114    72.400114    36.121429          120    15689.391    20024.688   -39543.616   -2839.8489   -6143.0226   -2525.1272    72.400114    62.700338    36.121429   -1276.5123    -308427.2 
    2460    1734.9017    163974.59    72.400252    72.400253    36.121498          120   -60316.058   -62731.603   -143134.87    1530.7679   -2258.6864   -1606.4799    72.400252    62.700458    36.121498   -88727.509   -308247.09 
    2470    1779.0988    163975.53    72.400391    72.400391    36.121568          120    99066.864    97565.033    59779.199   -2254.4197   -3387.9171   -1354.1662    72.400391    62.700578    36.121568    85470.366   -308342.42 
    2480    1783.4792     163976.5    72.400533    72.400533    36.121638          120    107427.37    111520.34    73335.955   -4284.9351   -5621.5911   -2697.1647    72.400533    62.700701    36.121638    97427.889   -308347.23 
    2490    1742.1124    163977.48    72.400677    72.400678    36.121711          120   -57273.648   -52734.178   -136802.88    196.11262   -4267.9096   -1269.3256    72.400677    62.700826    36.121711   -82270.235   -308252.54 
    2500    1801.3638    163978.46    72.400822    72.400823    36.121783          120    1371.9393   -162.42437   -65568.682   -348.12808   -3431.8822    172.79807    72.400822    62.700952    36.121783   -21453.056   -308381.13 
    2510    1730.1918    163979.46    72.400969    72.400969    36.121856          120    140095.82    138592.55    108559.42   -4399.1103   -4124.4029   -2346.4584    72.400969    62.701079    36.121856    129082.59   -308217.66 
    2520    1810.4702    163980.48    72.401118    72.401119    36.121931          120    27518.235     33180.43   -32234.536   -2021.5756   -4462.4796   -2670.5644    72.401118    62.701208    36.121931     9488.043   -308394.19 
    2530     1718.591     163981.5    72.401269     72.40127    36.122006          120   -71232.428   -65551.568   -155776.84    567.31952   -4465.2415     972.1838    72.401269    62.701339    36.122006   -97520.277   -308186.82 
    2540    1793.9649    163982.53    72.401421    72.401421    36.122082          120    85925.367    81781.018    37420.893   -3188.6975   -2976.3305    72.174896    72.401421     62.70147    36.122082    68375.759   -308350.08 
    2550    1756.3019    163983.57    72.401574    72.401575    36.122158          120    119122.77    117792.41    77190.893    -3691.138   -2800.1046   -2718.5295    72.401574    62.701603    36.122158    104702.03   -308263.62 
    2560    1736.6731    163984.63     72.40173    72.401731    36.122236          120   -52166.965   -42405.991   -135127.22     314.1156   -3817.5218   -1192.5163     72.40173    62.701738    36.122236   -76566.726   -308216.38 
    2570    1807.5779     163985.7    72.401887    72.401887    36.122314          120   -14408.243   -12362.087   -88334.159   -804.09618   -2682.8835    1329.7217    72.401887    62.701874    36.122314   -38368.163   -308370.63 
    2580    1700.9083    163986.76    72.402044    72.402044    36.122392          120    140191.93    133021.58    100045.06   -3487.5994   -1732.6365   -196.16326    72.402044     62.70201    36.122392    124419.52   -308130.12 
    2590     1825.889    163987.85    72.402204    72.402205    36.122472          120    42564.648    45863.524   -22284.958   -1176.9157   -2065.6586   -1703.1452    72.402204    62.702149    36.122472    22047.738   -308404.88 
    2600    1702.9406    163988.95    72.402366    72.402366    36.122553          120   -77078.009   -66925.918   -167785.79    1499.3565   -2389.7898    -812.7372    72.402366    62.702288    36.122553    -103929.9   -308127.15 
    2610    1800.1241    163990.05    72.402527    72.402528    36.122633          120     74772.86    71697.719    18307.767   -1443.2165   -1657.5671    748.74472    72.402527    62.702428    36.122633    54926.116   -308341.01 
    2620    1736.8367    163991.16     72.40269    72.402691    36.122715          120    127593.16    123157.11    79996.878   -3049.2395   -1416.0023    1050.4731     72.40269     62.70257    36.122715    110249.05   -308195.36 
    2630    1760.5696    163992.28    72.402856    72.402857    36.122798          120    -42564.31   -34721.274   -126798.79    834.39358   -2449.3056   -992.13902    72.402856    62.702713    36.122798   -68028.124   -308245.18 
    2640    1769.7945    163993.41    72.403022    72.403023    36.122881          120   -26862.786   -21003.409   -106610.33    1806.1136   -3007.3057   -923.53415    72.403022    62.702857    36.122881   -51492.174      -308263 
    2650     1720.182    163994.55    72.403189     72.40319    36.122964          120    135524.05    132672.41    86955.902    -2821.942    -1001.141    2245.8606    72.403189    62.703002    36.122964    118384.12   -308147.25 
    2660    1816.0453     163995.7    72.403359    72.403359    36.123048          120    56717.356    57740.842   -7599.8037   -2382.8661   -1462.7186    1161.3878    72.403359    62.703148    36.123048    35619.465   -308357.93 
    2670    1683.6622    163996.86     72.40353     72.40353    36.123134          120   -76360.765   -69071.467   -167465.76    2309.1655   -5481.8931    -1276.729     72.40353    62.703297    36.123134   -104299.33   -308060.42 
    2680    1823.2641    163998.02      72.4037    72.403701    36.123219          120      61585.7    65156.981   -5063.3871    161.78613   -3117.8839    1665.2612      72.4037    62.703445    36.123219    40559.765   -308366.64 
    2690    1711.5402    163999.19    72.403873    72.403874    36.123305          120    133381.51    134873.75    83374.573   -3485.2444    969.44243    2612.3672    72.403873    62.703594    36.123305    117209.94   -308114.22 
    2700     1781.854    164000.38    72.404048    72.404049    36.123393          120   -28626.791   -24900.038   -109050.28   -654.34699   -4161.7042    -163.7905    72.404048    62.703746    36.123393   -54192.369   -308268.36 
    2710    1759.9769    164001.58    72.404224    72.404225     36.12348          120   -35203.667   -31079.986   -123752.69    2539.3892   -7302.3808    686.26001    72.404224    62.703898     36.12348   -63345.447   -308214.86 
    2720    1747.6962    164002.78    72.404401    72.404401    36.123568          120    130570.81    135487.21    77811.677    -1477.387    529.38209     3263.848    72.404401    62.704051    36.123568    114623.23   -308183.76 
    2730    1801.8348       164004     72.40458     72.40458    36.123658          120     69285.17     74096.09    11686.625   -2949.9175     677.7468    1666.0597     72.40458    62.704206    36.123658    51689.295   -308300.41 
    2740    1727.0145    164005.23    72.404761    72.404762    36.123748          120    -71270.28   -69168.496    -164509.6    1839.0493   -6938.0251   -716.24978    72.404761    62.704363    36.123748   -101649.46   -308129.37 
    2750    1820.9872    164006.46    72.404942    72.404943    36.123839          120    51833.638    55405.216   -20664.163    1630.5245   -3477.9068    2065.3754    72.404942     62.70452    36.123839     28858.23   -308335.87 
    2760    1732.6843     164007.7    72.405126    72.405126     36.12393          120    137422.24    144463.84    93894.742   -2964.6874    3281.0948    4049.3646    72.405126    62.704679     36.12393    125260.27   -308134.29 
    2770    1815.1719    164008.97    72.405312    72.405312    36.124023          120   -16391.593   -11931.708   -90539.491   -935.45415   -1434.3123    41.627581    72.405312     62.70484    36.124023    -39620.93   -308314.17 
    2780    1758.5225    164010.24    72.405499    72.405499    36.124116          120   -39897.646   -39184.549   -131276.44    3502.3649   -5303.3408   -374.06063    72.405499    62.705002    36.124116   -70119.545   -308185.08 
    2790    1777.3362    164011.52    72.405687    72.405687     36.12421          120    124834.22    129920.23    74214.522   -802.28154    1979.3904    4266.2807    72.405687    62.705165     36.12421    109656.32   -308222.21 
    2800    1811.7923    164012.82    72.405878    72.405878    36.124305          120    81561.184    89314.383    31906.014   -3460.4828    3190.0412     3379.735    72.405878     62.70533    36.124305     67593.86   -308294.94 
    2810      1735.34    164014.13    72.406071    72.406072    36.124402          120   -65518.185   -63693.401   -155087.95     1995.188   -3034.1066   -1431.8259    72.406071    62.705498    36.124402   -94766.514   -308122.75 
    2820    1824.7193    164015.45    72.406265    72.406265    36.124498          120    40473.292    41551.062   -31649.248    2311.9512   -412.12474    1804.2194    72.406265    62.705665    36.124498    16791.702   -308317.11 
    2830    1746.5648    164016.78    72.406461    72.406461    36.124596          120    142973.33    150315.88    102359.87   -3482.2473    4538.1614    5972.1275    72.406461    62.705835    36.124596    131883.02   -308138.95 
    2840    1800.6699    164018.13     72.40666    72.406661    36.124696          120   -1227.0898    3755.3055   -70064.156   -2056.1563    557.56399    709.02292     72.40666    62.706008    36.124696    -22511.98   -308257.38 
    2850    1767.7908     164019.5    72.406861    72.406861    36.124796          120   -47768.127    -47491.89   -133932.29    2885.8656   -1398.3388   -1314.1579    72.406861    62.706182    36.124796   -76397.434   -308180.11 
    2860    1775.2806    164020.87    72.407063    72.407063    36.124896          120    118649.42    123057.64    68152.521   -893.57774    2979.3569    5941.3613    72.407063    62.706356    36.124896    103286.53   -308193.17 
    2870     1801.609    164022.26    72.407267    72.407268    36.124999          120    98271.264    104008.69    49953.837    -4192.742    3406.7694    5312.4661    72.407267    62.706534    36.124999    84077.929   -308249.01 
    2880    1739.7343    164023.67    72.407475    72.407476    36.125102          120   -62340.216   -60023.855   -142755.18   -106.33282     56.54241   -1831.6892    72.407475    62.706714    36.125102   -88373.085   -308106.88 
    2890    1830.1833    164025.09    72.407684    72.407685    36.125206          120    27756.984    29996.468   -39565.803    1294.9439    688.90321    2790.9298    72.407684    62.706895    36.125206    6062.5497    -308305.4 
    2900    1725.4643    164026.52    72.407895    72.407896    36.125312          120    149161.74     153220.5    106986.11   -2950.6226    3074.2795    8180.3311    72.407895    62.707077    36.125312    136456.12   -308068.37 
    2910    1831.2239    164027.98     72.40811     72.40811    36.125419          120    13084.917    16523.192    -48221.88   -3028.8828     2166.708    2009.2161     72.40811    62.707263    36.125419   -6204.5905   -308299.75 
    2920    1751.2666    164029.46    72.408326    72.408327    36.125527          120   -55668.905   -53421.709   -131623.67    879.33611    838.60576   -876.31215    72.408326    62.707451    36.125527   -80238.094   -308119.01 
    2930    1789.9998    164030.94    72.408544    72.408545    36.125636          120    111802.29    114271.62    61261.101   -585.57392    747.67697    6225.3139    72.408544    62.707639    36.125636    95778.339    -308201.2 
    2940    1816.1807    164032.44    72.408765    72.408766    36.125746          120    110876.05    114262.32    67140.264   -3610.1632    2019.2824    6133.5831    72.408765    62.707831    36.125746    97426.213    -308254.8 
    2950    1745.8195    164033.97     72.40899    72.408991    36.125858          120   -56350.089   -53263.233    -125146.1   -812.17404    1750.2539   -286.79814     72.40899    62.708025    36.125858    -78253.14   -308095.67 
    2960    1845.2528     164035.5    72.409216    72.409216    36.125971          120    15753.325    16868.399   -48936.937    1226.4767    451.11383    2052.5704    72.409216    62.708221    36.125971   -5438.4044   -308313.15 
    2970    1742.3391    164037.05    72.409444    72.409444    36.126084          120    149554.91    152034.22    111414.26   -2565.5075    534.07483     5732.735    72.409444    62.708419    36.126084     137667.8   -308079.15 
    2980    1851.6052    164038.63    72.409676    72.409677      36.1262          120    28279.779    31398.342   -22590.791   -1969.7076    704.79824    2654.1378    72.409676     62.70862      36.1262    12362.444   -308320.62 
    2990    1743.7569    164040.22    72.409911    72.409911    36.126317          120   -60337.212    -59643.04   -132712.56    1735.8201    1711.2542    320.23262    72.409911    62.708823    36.126317   -84230.937   -308076.47 
    3000    1837.2178    164041.83    72.410147    72.410147    36.126435          120    101295.76    102348.47    55953.724    -558.9829    1155.6061    2921.9093    72.410147    62.709027    36.126435    86532.653   -308280.61 
    3010    1780.2929    164043.45    72.410386    72.410387    36.126554          120    121936.56    123230.66    87577.334   -2314.2992   -818.46526    3196.1167    72.410386    62.709234    36.126554    110914.85   -308151.21 
    3020    1783.2979    164045.11    72.410629     72.41063    36.126676          120   -46437.664   -45158.916   -111158.25    945.58274    665.61022    1060.5533    72.410629    62.709445    36.126676   -67584.942   -308154.04 
    3030    1831.5033    164046.77    72.410874    72.410875    36.126798          120     1273.738    4309.3178   -57548.901    1243.4826    3562.4496    1390.9738    72.410874    62.709657    36.126798   -17321.948   -308258.17 
    3040    1740.6636    164048.45    72.411121    72.411122    36.126921          120    149083.01    149527.49    120297.58   -1834.7279    234.03708     2448.108    72.411121    62.709871    36.126921    139636.03   -308052.67 
    3050    1859.7769    164050.16    72.411373    72.411374    36.127047          120     44877.88    43537.005   -2400.5217   -274.23122    -2385.139     1542.068    72.411373    62.710089    36.127047    28671.455   -308313.52 
    3060    1740.5161    164051.89    72.411628    72.411628    36.127174          120   -65315.141   -61036.863   -131639.62     1317.448    2977.6146    380.92633    72.411628     62.71031    36.127174   -85997.209   -308044.62 
    3070    1840.4811    164053.63    72.411884    72.411884    36.127302          120    87462.353    91952.935    51397.328   -1280.9943    3803.9072    2029.9591    72.411884    62.710531    36.127302    76937.538   -308264.12 
    3080    1782.9695     164055.4    72.412143    72.412144    36.127431          120    131737.53    130313.66    99315.697   -1526.4893   -2691.8042    2392.1233    72.412143    62.710756    36.127431    120455.63    -308130.8 
    3090    1808.6517    164057.19    72.412407    72.412407    36.127563          120   -36049.037    -36883.91   -96476.048    224.74977   -1987.4349    172.47013    72.412407    62.710985    36.127563   -56469.665   -308185.77 
    3100    1810.8684    164058.99    72.412673    72.412673    36.127695          120    -14848.31   -8282.7737   -64449.638   -442.10542    5009.3967     849.7172    72.412673    62.711215    36.127695   -29193.574   -308187.26 
    3110    1786.3696    164060.82     72.41294    72.412941    36.127829          120    143814.62    148349.71    116099.77    -1523.406    1082.0538     3305.332     72.41294    62.711447    36.127829    136088.03   -308127.61 
    3120    1843.0945    164062.67    72.413213    72.413213    36.127965          120     59152.87    56292.336    14240.244   -1698.6705    -3872.823    2073.2155    72.413213    62.711682    36.127965    43228.483   -308251.53 
    3130    1755.5752    164064.54    72.413488    72.413489    36.128102          120   -68115.332   -66835.495   -126532.03   -418.64913    1551.8259   -358.86385    72.413488    62.711921    36.128102   -87160.953   -308053.49 
    3140    1849.4926    164066.42    72.413765    72.413765     36.12824          120     71653.85     80381.13    34785.091    543.79358    4075.6637    1478.1805    72.413765    62.712161     36.12824    62273.357   -308258.43 
    3150    1771.3173    164068.32    72.414045    72.414046     36.12838          120    137708.04    140268.16    107618.47   -2168.6068   -698.33823    3655.4355    72.414045    62.712403     36.12838    128531.56      -308082 
    3160    1806.7232    164070.26     72.41433     72.41433    36.128522          120   -27273.647    -29924.65   -80455.076   -2602.6211   -1542.9787     866.6751     72.41433     62.71265    36.128522   -45884.458   -308157.51 
    3170     1808.916     164072.2    72.414616    72.414617    36.128665          120   -26491.366   -20699.321   -78964.082    1592.9786    2932.6894   -862.40507    72.414616    62.712898    36.128665    -42051.59   -308158.52 
    3180     1765.404    164074.17    72.414905    72.414905    36.128809          120    138017.58    145911.45     109192.9    254.10094    1883.9634    2549.2011    72.414905    62.713148    36.128809    131040.64   -308058.82 
    3190    1836.0539    164076.16    72.415197    72.415198    36.128955          120    69470.916    69795.093    31935.236   -3429.5917   -1623.6549    2904.2697    72.415197    62.713401    36.128955    57067.081   -308212.23 
    3200    1753.8854    164078.17    72.415493    72.415494    36.129103          120   -67761.009   -68166.183   -128405.21   -131.12877   -132.96019   -762.43797    72.415493    62.713658    36.129103   -88110.801   -308025.55 
    3210    1833.2504    164080.19    72.415791    72.415792    36.129251          120    60601.239    67771.976    16506.815    2486.1054    1818.8513    813.82353    72.415791    62.713915    36.129251    48293.343   -308199.59 
    3220    1780.4599    164082.24    72.416092    72.416092    36.129401          120    140374.74    145513.52    113914.79   -1424.8508    -852.6197    4037.8648    72.416092    62.714176    36.129401    133267.68   -308076.89 
    3230    1821.9382    164084.31    72.416397    72.416397    36.129553          120   -17434.891   -18280.257   -70195.597   -1260.4494   -1673.7917    261.96565    72.416397     62.71444    36.129553   -35303.582   -308165.78 
    3240    1813.6348    164086.39    72.416704    72.416704    36.129706          120   -33471.432   -30716.536   -96684.494     2319.574    135.09529   -1272.8097    72.416704    62.714706    36.129706   -53624.154   -308144.01 
    3250    1798.1562    164088.49    72.417012    72.417013     36.12986          120    130683.34    136029.01    97488.615    733.33394   -778.31083     4405.069    72.417012    62.714973     36.12986    121400.32    -308104.1 
    3260    1868.3815    164090.62    72.417325    72.417326    36.130016          120    81210.374     83343.24    43860.639   -375.38906   -1760.5791     2719.635    72.417325    62.715244    36.130016    69471.418   -308257.14 
    3270    1762.7955    164092.77    72.417641    72.417642    36.130174          120    -66976.27   -63787.633   -133222.03    1336.5388   -725.50498   -2761.9318    72.417641    62.715518    36.130174   -87995.311   -308018.98 
    3280    1888.0302    164094.93    72.417959    72.417959    36.130333          120     47436.05    51008.707   -3219.3773    1461.8098   -939.65093    2891.3169    72.417959    62.715792    36.130333    31741.793   -308293.13 
    3290    1781.1922     164097.1    72.418279    72.418279    36.130492          120    146248.86    147410.68    114350.57    257.96988   -2476.9076    6063.3042    72.418279     62.71607    36.130492    136003.37   -308051.91 
    3300    1858.7202    164099.31    72.418603    72.418604    36.130654          120   -6949.4364   -1266.2522   -60410.798    813.89792   -797.66809   -103.42011    72.418603    62.716351    36.130654   -22875.496   -308222.06 
    3310    1821.4525    164101.52    72.418929     72.41893    36.130817          120   -47176.972   -40862.074   -109011.41    1406.9645    141.62499   -159.71429    72.418929    62.716633    36.130817   -65683.486   -308134.37 
    3320    1821.6871    164103.75    72.419257    72.419258     36.13098          120    126325.12    125600.11    87264.737   -212.45393   -2567.7053    6199.3546    72.419257    62.716917     36.13098    113063.32   -308131.44 
    3330    1865.5188    164106.01    72.419589    72.419589    36.131146          120    94348.921      97574.6    52882.139   -500.47449   -2372.2467    4035.7203    72.419589    62.717204    36.131146    81601.886   -308225.34 
    3340    1789.0558    164108.29    72.419924    72.419924    36.131313          120   -69140.045   -58944.926   -130603.97    1342.0222    1143.7984   -751.63601    72.419924    62.717495    36.131313   -86229.648   -308050.86 
    3350    1893.1401    164110.57     72.42026    72.420261    36.131481          120    33519.589    36129.625    -17112.13    200.40467   -955.41626    3078.3779     72.42026    62.717786    36.131481    17512.361   -308280.42 
    3360    1781.6413    164112.88    72.420599      72.4206     36.13165          120    149227.06    149703.29    111692.26   -2496.9082   -3888.3436    4717.4132    72.420599    62.718079     36.13165     136874.2   -308027.56 
    3370    1901.7246    164115.21    72.420942    72.420942    36.131821          120    3930.3827     11644.66   -49376.033   -664.84175   -413.72722    1413.9724    72.420942    62.718376    36.131821   -11266.997   -308291.26 
    3380    1801.7754    164117.55    72.421287    72.421287    36.131993          120   -57631.852   -49285.803      -117747    2383.4484    448.96338    1434.9055    72.421287    62.718675    36.131993   -74888.219   -308065.73 
    3390    1869.5007     164119.9    72.421633    72.421634    36.132166          120    114405.96    117747.15    71809.575   -1458.2447   -4078.4554    2707.5362    72.421633    62.718975    36.132166    101320.89   -308212.08 
    3400    1864.5783    164122.28    72.421983    72.421983     36.13234          120    103238.82    106494.85    60707.751   -4125.0805   -2970.6224    2605.7605    72.421983    62.719277     36.13234    90147.143   -308196.89 
    3410    1819.4236    164124.68    72.422336    72.422336    36.132516          120    -63388.88   -55119.333   -125498.89    1577.4239    623.22474    2194.5051    72.422336    62.719583    36.132516   -81335.703   -308094.28 
    3420    1898.0995    164127.09     72.42269     72.42269    36.132693          120    15930.222    23972.416   -40088.245    2850.5918   -3695.9611    906.68617     72.42269     62.71989    36.132693   -61.868934   -308264.92 
    3430    1813.5531    164129.51    72.423046    72.423046    36.132871          120    146845.69    150335.44    108845.91   -3801.3377   -5396.9628    1288.8844    72.423046    62.720198    36.132871    135342.35   -308072.39 
    3440    1901.0798    164131.96    72.423406    72.423406     36.13305          120    17722.163    22803.541    -35168.64   -3341.5218   -673.27531    2140.6653    72.423406     62.72051     36.13305    1785.6881   -308265.23 
    3450    1819.4356    164134.42    72.423768    72.423768    36.133231          120   -63581.658    -54749.28    -133667.4    3532.2439   -2046.1506    568.48654    72.423768    62.720823    36.133231   -83999.446   -308079.27 
    3460    1889.7812    164136.89    72.424131    72.424131    36.133412          120    102089.19    108082.55    54733.642    553.88738   -6813.6874   -299.81703    72.424131    62.721138    36.133412    88301.794   -308232.74 
    3470    1848.2548    164139.38    72.424497    72.424497    36.133595          120    112064.85     116576.9    71624.911   -5112.2974   -3698.6253    579.91424    72.424497    62.721455    36.133595    100088.89   -308137.19 
    3480    1851.3035    164141.89    72.424866    72.424867    36.133779          120   -54845.096   -47663.562   -126535.92    -1234.595    67.540848     546.9026    72.424866    62.721775    36.133779   -76348.191   -308140.18 
    3490    1882.1329    164144.41    72.425237    72.425237    36.133964          120    4157.9503    11792.085   -62775.833    2493.2871   -5093.8677    -378.9858    72.425237    62.722096    36.133964   -15608.599   -308206.21 
    3500    1814.8725    164146.94    72.425609    72.425609    36.134149          120    144506.05     150166.1    107191.25   -2137.3405   -6727.8917   -321.02452    72.425609    62.722418    36.134149    133954.47    -308053.1 
    3510    1898.0757    164149.49    72.425985    72.425985    36.134337          120    31361.658    37333.812    -26277.92   -4568.2078   -712.01661    140.26061    72.425985    62.722743    36.134337    14139.184   -308234.74 
    3520    1808.3402    164152.06    72.426363    72.426363    36.134525          120   -64791.762   -55948.612   -146116.08   -253.79086   -254.58277     159.7961    72.426363    62.723071    36.134525    -88952.15      -308033 
    3530    1866.3782    164154.64    72.426742    72.426742    36.134715          120    89653.042    96478.125    40335.479    758.33487   -6812.1787    -373.0533    72.426742    62.723399    36.134715    75488.882   -308158.93 
    3540    1848.0885    164157.23    72.427123    72.427124    36.134905          120    121191.92    125427.85    79553.433   -2559.2444   -5238.0459   -874.65373    72.427123    62.723729    36.134905     108724.4   -308113.91 
    3550    1823.6236    164159.85    72.427508    72.427509    36.135097          120    -45067.88   -36332.282   -122584.72   -2885.3787    2387.0744    307.18149    72.427508    62.724063    36.135097    -67994.96   -308057.76 
    3560    1868.9582    164162.48    72.427895    72.427895     36.13529          120    -9964.062    1419.8432   -79370.632    484.97915   -1769.4562   -236.43196    72.427895    62.724397     36.13529    -29304.95   -308155.32 
    3570    1810.5797    164165.11    72.428282    72.428283    36.135483          120    141677.35     144820.3    101908.32    440.38343    -8995.309   -2378.4033    72.428282    62.724733    36.135483    129468.66   -308020.64 
    3580    1883.7228    164167.77    72.428674    72.428674    36.135678          120    47478.844    50590.508   -13032.571   -2143.2074   -2266.4739   -650.86535    72.428674    62.725072    36.135678    28345.594   -308181.63 
    3590    1798.1065    164170.45    72.429067    72.429068    36.135875          120   -71498.589   -56839.769   -152126.11   -1291.9032    3880.7842    1070.3651    72.429067    62.725413    36.135875   -93488.156   -307987.12 
    3600     1881.826    164173.13    72.429461    72.429462    36.136071          120     75803.76      84174.9    22662.567    1184.9946   -6133.7798   -2284.1866    72.429461    62.725754    36.136071    60880.409   -308169.73 
    3610    1822.2357    164175.83    72.429858    72.429858    36.136269          120    132622.55    130687.45    84314.082   -38.339066   -8723.4942   -2561.0256    72.429858    62.726097    36.136269    115874.69   -308034.75 
    3620     1838.363    164178.55    72.430258    72.430258    36.136469          120   -37638.106   -29426.841    -112877.3   -1543.9805    2730.0249    1162.5231    72.430258    62.726444    36.136469   -59980.748   -308067.16 
    3630    1867.8827    164181.27    72.430659    72.430659    36.136669          120   -24591.797   -10603.518   -94277.839    687.80019    1942.4579    244.72598    72.430659    62.726791    36.136669   -43157.718   -308129.89 
    3640     1791.187    164184.01    72.431061    72.431062     36.13687          120    140066.37    140491.47    91067.002    599.19762   -8933.4105   -3123.8172    72.431061     62.72714     36.13687    123874.94   -307956.06 
    3650    1901.3209    164186.77    72.431467    72.431467    36.137072          120    61259.498    61436.993   -79.900742   -187.35286   -4254.8702   -715.35898    72.431467    62.727491    36.137072    40872.197   -308197.46 
    3660    1777.6017    164189.54    72.431874    72.431875    36.137275          120   -74142.915   -62286.887   -150869.91     230.6775    5881.8991    1929.7398    72.431874    62.727844    36.137275    -95766.57   -307918.85 
    3670    1886.8637    164192.32    72.432283    72.432283    36.137479          120    65714.041    71159.762    5389.2556   -166.67544   -1952.5996   -1237.4893    72.432283    62.728198    36.137479     47421.02   -308159.32 
    3680    1808.4898    164195.11    72.432694    72.432694    36.137684          120    138822.91    136131.12    86608.786    347.61028    -7973.234   -2174.9889    72.432694    62.728553    36.137684    120520.94   -307979.74 
    3690    1856.9905    164197.93    72.433108    72.433108    36.137891          120   -26826.781   -21362.488   -96019.102    407.84388    969.03152    673.70776    72.433108    62.728912    36.137891   -48069.457   -308085.75 
    3700     1837.228    164200.75    72.433523    72.433523    36.138098          120   -33521.583   -25855.927   -105227.99   -1507.2207    4525.0667    764.94495    72.433523    62.729271    36.138098   -54868.499    -308038.5 
    3710    1828.7516    164203.58    72.433939    72.433939    36.138305          120    136129.11    134120.24     81645.06    -685.5492   -4548.5959   -1806.2415    72.433939    62.729632    36.138305    117298.14   -308014.53 
    3720    1886.1442    164206.43    72.434358    72.434359    36.138515          120    75111.772    74400.319    16880.004    1020.2516   -5484.4006   -1194.4915    72.434358    62.729995    36.138515    55464.032   -308139.76 
    3730    1790.7988     164209.3     72.43478    72.434781    36.138725          120   -72614.888   -64817.807      -145433   -1815.3413    3187.2678    246.67712     72.43478    62.730361    36.138725   -94288.566   -307923.64 
    3740    1917.1907    164212.18    72.435203    72.435203    36.138936          120    53869.942    55432.458   -9798.8498    -2417.784    1801.9084   -488.96621    72.435203    62.730726    36.138936     33167.85   -308200.64 
    3750    1803.8903    164215.07    72.435628    72.435628    36.139148          120    146479.97    141536.75    93196.687    610.82216   -6199.3668    -1268.007    72.435628    62.731094    36.139148    127071.14   -307945.05 
    3760    1899.9965    164217.98    72.436056    72.436056    36.139362          120   -14052.372   -10384.706   -79296.482   -428.88021   -3737.2006   -900.78245    72.436056    62.731465    36.139362   -34577.853   -308155.97 
    3770    1848.0547     164220.9    72.436486    72.436486    36.139576          120   -44098.967   -36334.546   -114980.97   -3361.3533    4374.4844   -50.767718    72.436486    62.731837    36.139576   -65138.159   -308035.91 
    3780    1864.0612    164223.83    72.436916    72.436917    36.139791          120    132041.03    129071.33    76870.118   -1182.0727   -726.38233   -168.17112    72.436916     62.73221    36.139791    112660.83   -308068.71 
    3790    1890.8776    164226.78     72.43735    72.437351    36.140007          120    88610.178    85730.139    34598.087    439.17618   -7272.6644   -792.97295     72.43735    62.732586    36.140007    69646.135   -308124.41 
    3800    1833.9013    164229.75    72.437787    72.437788    36.140225          120    -70244.94   -60878.748   -137941.37    -1995.656    258.29913   -267.14119    72.437787    62.732964    36.140225   -89688.351   -307994.69 
    3810    1901.2735    164232.73    72.438225    72.438225    36.140444          120    41090.532    45989.509   -20462.994    -2375.173    4699.2292    327.54204    72.438225    62.733343    36.140444    22205.682    -308142.5 
    3820    1827.5976    164235.72    72.438665    72.438665    36.140663          120    150663.56     145883.8    102622.09   -1158.6714   -4515.6236    106.48722    72.438665    62.733724    36.140663    133056.48   -307974.28 
    3830    1897.9602    164238.74    72.439108    72.439109    36.140884          120    -2403.659    2950.6004   -57939.028   -331.72014   -5406.4492    292.66302    72.439108    62.734109    36.140884   -19130.696   -308128.52 
    3840    1831.6003    164241.77    72.439554    72.439555    36.141107          120   -52563.297   -40048.563   -115911.31   -1183.1183    3807.6762    160.16397    72.439554    62.734495    36.141107   -69507.724   -307978.14 
    3850       1874.1    164244.81    72.440001    72.440002     36.14133          120    123760.08    122164.81    71317.586   -3099.5697    339.44843    492.24116    72.440001    62.734882     36.14133    105747.49   -308067.75 
    3860     1880.309    164247.88    72.440452    72.440452    36.141555          120    100555.85    100252.14    52845.439   -911.01183   -6592.0624    1183.9778    72.440452    62.735272    36.141555    84551.142   -308078.19 
    3870    1835.3095    164250.96    72.440905    72.440906    36.141781          120   -67925.113   -52500.804   -124902.44    1414.6177   -2231.1995   -493.19274    72.440905    62.735665    36.141781   -81776.121   -307975.29 
    3880    1914.3057    164254.06     72.44136    72.441361    36.142008          120    26364.663    32416.179    -31572.87   -2807.6247    2283.1719   -87.260374     72.44136    62.736059    36.142008    9069.3239   -308146.32 
    3890    1839.6172    164257.17    72.441817    72.441818    36.142236          120    154610.54    149404.87    105976.79   -3152.5988   -3693.6944    2398.8927    72.441817    62.736455    36.142236    136664.07   -307976.45 
    3900    1907.1608     164260.3    72.442279    72.442279    36.142466          120    11011.629    19950.319   -40527.467    1995.7187   -6024.6464   -357.16286    72.442279    62.736854    36.142466   -3188.5064   -308123.97 
    3910    1861.4885    164263.46    72.442742    72.442743    36.142697          120   -60785.982   -47610.257   -119225.57   -460.83391     130.1101   -1877.2598    72.442742    62.737256    36.142697   -75873.937   -308018.22 
    3920     1883.329    164266.62    72.443207    72.443208    36.142929          120    115464.91     111996.4    63264.819   -4129.6184   -416.11776    3010.7732    72.443207    62.737658    36.142929    96908.709   -308064.09 
    3930    1895.7536    164269.81    72.443675    72.443676    36.143163          120    115307.63    113293.52    65973.131    381.27756   -5512.1501    2263.2538    72.443675    62.738064    36.143163     98191.43   -308088.48 
    3940    1852.4748    164273.02    72.444147    72.444148    36.143398          120   -59239.663   -48541.106   -116723.42    1454.3082   -3055.9147   -3121.5712    72.444147    62.738473    36.143398   -74834.728   -307988.47 
    3950     1921.303    164276.24    72.444621    72.444621    36.143635          120    14996.347    18803.844    -40772.82   -3241.8469    853.62968    524.37577    72.444621    62.738883    36.143635   -2324.2101   -308139.39 
    3960    1833.4973    164279.47    72.445096    72.445097    36.143872          120    155965.79    149897.37    108166.41   -508.87862   -2991.2206    4763.9717    72.445096    62.739295    36.143872    138009.86   -307939.71 
    3970    1935.4357    164282.74    72.445576    72.445577    36.144111          120    30467.402    31313.542   -23734.986    1909.4915   -4166.2115   -643.81299    72.445576     62.73971    36.144111    12681.986   -308163.45 
    3980    1837.3103    164286.02    72.446059    72.446059    36.144352          120   -61595.091   -55113.874   -122287.12   -1290.8154    331.34613   -3433.6251    72.446059    62.740128    36.144352   -79665.361   -307942.87 
    3990    1906.2965    164289.31    72.446543    72.446543    36.144594          120    104215.08    101828.88    54139.691    -812.9523    -432.6129    2929.2022    72.446543    62.740547    36.144594    86727.881   -308092.55 
    4000    1889.5837    164292.63     72.44703    72.447031    36.144837          120    126450.96    121220.66    79718.484    1559.2859   -3016.5462    3098.7043     72.44703    62.740969    36.144837    109130.04   -308051.73 
    4010    1853.4171    164295.97    72.447522    72.447522    36.145082          120   -45851.854   -43043.957   -107478.47    716.73722   -499.76185   -3441.9814    72.447522    62.741395    36.145082   -65458.092   -307969.45 
    4020    1923.0992    164299.33    72.448015    72.448015    36.145328          120    3177.6738    4627.8126   -55586.414   -421.62639    688.36146   -1454.3116    72.448015    62.741822    36.145328   -15926.976   -308121.01 
    4030    1832.4452     164302.7     72.44851     72.44851    36.145575          120    152141.22    146514.19    109917.25    641.38846   -1162.1187    3450.3069     72.44851    62.742251    36.145575    136190.88   -307915.61 
    4040    1932.1245    164306.09    72.449009     72.44901    36.145824          120    46211.163    44898.399   -7273.6868    1399.4681   -837.09666     286.2696    72.449009    62.742683    36.145824    27945.292    -308135.7 
    4050    1822.4788    164309.51    72.449511    72.449512    36.146075          120   -63288.253   -60647.227   -130823.98     1477.923    589.77617   -3147.8486    72.449511    62.743118    36.146075    -84919.82    -307887.6 
    4060    1922.8263    164312.93    72.450015    72.450015    36.146326          120    91468.239    88146.101    44104.473    460.26829    444.10378    1055.5556    72.450015    62.743554    36.146326    74572.938   -308108.23 
    4070    1845.7065    164316.38    72.450522    72.450522    36.146579          120    132993.12    129230.96    89805.919    851.22212    45.255346    2872.0336    72.450522    62.743993    36.146579    117343.33   -307933.32 
    4080    1885.3339    164319.86    72.451032    72.451033    36.146833          120   -35557.271   -33705.003   -102015.74    3011.0154    280.60186   -1653.8838    72.451032    62.744435    36.146833    -57092.67    -308018.4 
    4090    1889.5441    164323.34    72.451545    72.451545    36.147089          120   -10031.706   -10143.937   -68438.756     2662.445    1211.9201   -1709.8934    72.451545    62.744879    36.147089   -29538.133   -308025.36 
    4100    1842.3418    164326.84    72.452059    72.452059    36.147346          120     146488.1    142843.31    107220.18    201.99549    1460.1116    2804.2544    72.452059    62.745324    36.147346    132183.86   -307916.24 
    4110    1935.0146    164330.37    72.452577    72.452578    36.147604          120    58462.484    58106.039    3461.6365    1920.2232    638.89165    847.13707    72.452577    62.745773    36.147604    40010.053   -308118.73 
    4120    1828.2044    164333.92    72.453098    72.453099    36.147864          120   -65495.536   -63974.493   -132006.03    4609.3578    858.01986   -3187.1062    72.453098    62.746224    36.147864   -87158.685   -307878.26 
    4130    1936.7042    164337.47    72.453621    72.453621    36.148125          120    75322.539    73427.224    29946.659    1668.6015    1865.8724    534.83012    72.453621    62.746677    36.148125    59565.474      -308116 
    4140    1868.5188    164341.05    72.454146    72.454147    36.148387          120    136910.86    134026.82    95184.716   -96.121368    1270.7363    2490.7265    72.454146    62.747132    36.148387     122040.8   -307959.15 
    4150    1913.9922    164344.65    72.454675    72.454676    36.148651          120   -26004.339   -25500.034   -89321.961    3069.5662    298.70131    -2462.845    72.454675     62.74759    36.148651   -46942.112    -308058.3 
    4160    1897.0648    164348.26    72.455206    72.455207    36.148916          120   -24178.722    -24090.92    -83495.88    3761.4344    921.76126   -2396.4586    72.455206     62.74805    36.148916   -43921.841   -308016.89 
    4170    1896.9969    164351.88    72.455738    72.455739    36.149181          120    138715.88    134668.07    100123.75    131.19885    892.18709     2026.554    72.455738    62.748511    36.149181    124502.56    -308012.6 
    4180    1928.5007    164355.53    72.456275    72.456275    36.149449          120    70214.637    67840.337    20798.673    470.96101    366.64112   -250.44892    72.456275    62.748975    36.149449    52951.216   -308080.45 
    4190    1865.9159     164359.2    72.456813    72.456814    36.149718          120   -66565.036   -64731.449   -134729.29    3145.6405    480.28053   -2665.5314    72.456813    62.749442    36.149718   -88675.259   -307937.88 
    4200    1944.5531    164362.87    72.457353    72.457354    36.149987          120     60983.24    59009.233    10956.234    1719.2967   -191.50773    296.05523    72.457353    62.749909    36.149987    43649.569   -308109.49 
    4210    1865.8326    164366.56    72.457896    72.457897    36.150258          120    142987.65    137766.66    104029.41   -199.45531   -442.90335    965.03133    72.457896    62.750379    36.150258    128261.24      -307932 
    4220    1919.0758    164370.28    72.458442    72.458443     36.15053          120   -15819.663   -14774.127   -78588.947    460.95086    1128.2807   -1043.2524    72.458442    62.750853     36.15053   -36394.246   -308047.29 
    4230    1894.4408    164374.01    72.458991    72.458991    36.150804          120   -33806.683   -30908.464   -99960.135    1562.1737   -9.2522058   -446.56014    72.458991    62.751327    36.150804   -54891.761   -307989.85 
    4240    1876.2519    164377.75     72.45954    72.459541    36.151078          120    133689.12    128417.57    92558.202    971.05966   -2574.5532    251.74464     72.45954    62.751803    36.151078    118221.63   -307946.69 
    4250    1931.7646    164381.52    72.460093    72.460094    36.151354          120    83348.624    80209.252    34227.738   -702.02043    321.87861   -393.11652    72.460093    62.752282    36.151354    65928.538   -308066.25 
    4260    1854.8162     164385.3     72.46065     72.46065    36.151632          120   -64753.926   -58502.401   -137622.21   -728.62498    2977.1635   -723.87862     72.46065    62.752764    36.151632   -86959.512   -307892.86 
    4270    1933.9596     164389.1    72.461207    72.461207     36.15191          120    49228.011    48029.602   -5988.6431    1082.9058   -2280.2852   -652.74865    72.461207    62.753247     36.15191     30422.99   -308066.05 
    4280    1876.6837     164392.9    72.461767    72.461767    36.152189          120    146818.99    139398.77    107618.59    152.71838   -3028.7055   -647.36661    72.461767    62.753731    36.152189    131278.79   -307933.39 
    4290    1926.5363    164396.74     72.46233    72.462331     36.15247          120   -4017.0044   -397.86847   -68258.568   -1880.8118     3618.876   -1141.7798     72.46233    62.754219     36.15247    -24224.48   -308041.96 
    4300    1899.8603    164400.59    72.462895    72.462896    36.152752          120    -41334.42   -37351.219   -114511.53   -513.19964    1841.6218   -548.56161    72.462895    62.754709    36.152752   -64399.056   -307979.14 
    4310    1910.7006    164404.44    72.463462    72.463463    36.153035          120    124775.22    116837.91    81255.703    94.686544    -4126.292   -237.90642    72.463462      62.7552    36.153035    107622.94   -307998.48 
    4320    1947.5262    164408.32    72.464032    72.464033    36.153319          120    94150.099    91007.896     47426.03   -1399.6714   -140.72505   -1332.0768    72.464032    62.755693    36.153319    77528.008   -308078.16 
    4330     1868.418    164412.22    72.464605    72.464605    36.153605          120   -59929.848   -55716.385   -139021.94   -1617.5304    4123.4191   -684.31033    72.464605    62.756189    36.153605   -84889.391   -307899.26 
    4340     1974.686    164416.13    72.465179    72.465179    36.153891          120    36556.521    32018.824   -25691.987   -944.91867   -1577.6383    957.26388    72.465179    62.756686    36.153891    14294.453   -308132.71 
    4350    1859.1654    164420.05    72.465755    72.465755    36.154179          120     146354.8    139580.63    109548.48   -1676.7589   -2217.2225   -541.14666    72.465755    62.757185    36.154179    131827.97   -307873.15 
    4360     1955.149       164424    72.466334    72.466335    36.154468          120    9925.2402     9854.767   -55490.792   -2287.1538    1826.4059   -1701.2243    72.466334    62.757687    36.154468   -11903.595   -308084.05 
    4370    1881.4334    164427.95    72.466916    72.466916    36.154758          120   -46842.519   -48956.849   -128188.39   -1734.1834    179.59485    180.29187    72.466916    62.758191    36.154758   -74662.586   -307916.87 
    4380     1910.683    164431.92    72.467498    72.467499    36.155048          120    114861.45    108725.34    68263.702   -2134.5638   -1406.5855    743.32188    72.467498    62.758695    36.155048    97283.497   -307979.65 
    4390    1922.7558     164435.9    72.468084    72.468084    36.155341          120    103165.91    100959.37    57657.999   -3021.6949    240.67844   -811.99865    72.468084    62.759202    36.155341    87261.093   -308002.85 
    4400    1870.8505    164439.91    72.468672    72.468673    36.155634          120   -53104.806   -54359.499   -134820.67   -1935.4315   -262.33175   -1457.3201    72.468672    62.759712    36.155634    -80761.66   -307884.68 
    4410    1945.0783    164443.92    72.469261    72.469262    36.155928          120    24039.277    19309.637    -45001.86   -1639.9573   -1341.6959   -229.66148    72.469261    62.760222    36.155928   -550.98189   -308047.97 
    4420    1855.1875    164447.94    72.469852    72.469853    36.156223          120    145089.96    141407.74    104761.32   -4002.4493    222.07079    682.72319    72.469852    62.760734    36.156223    130419.67   -307843.36 
    4430    1961.3836    164451.99    72.470447    72.470447     36.15652          120    22462.293    22068.736   -41446.097   -2752.3709   -614.88882    49.466801    72.470447    62.761249     36.15652     1028.311   -308077.64 
    4440    1852.8916    164456.05    72.471043    72.471044    36.156817          120   -53284.842   -55116.197    -137311.2   -627.90983   -1851.2294   -1618.7071    72.471043    62.761765    36.156817    -81904.08   -307833.42 
    4450    1946.5773    164460.12     72.47164    72.471641    36.157115          120    105172.31    98691.723    50890.703   -4147.9329   -73.134201   -379.88424     72.47164    62.762282    36.157115    84918.246   -308037.85 
    4460    1901.2376     164464.2     72.47224    72.472241    36.157414          120    113965.34    110203.62    65805.283    -4615.636   -1028.6871    1681.1601     72.47224    62.762802    36.157414    96658.078   -307933.72 
    4470    1900.1677    164468.31    72.472843    72.472844    36.157715          120   -47672.724   -45610.023   -127325.15   -889.12591   -1857.4216    895.62419    72.472843    62.763324    36.157715   -73535.966   -307929.17 
    4480     1945.454    164472.42    72.473447    72.473448    36.158017          120    10647.301    5635.5562   -64724.761   -2744.7291    568.14838   -1002.2961    72.473447    62.763847    36.158017   -16147.301    -308026.1 
    4490    1880.6415    164476.54    72.474052    72.474053    36.158319          120    148640.08    138021.35    102470.26   -5388.1289   -1775.6321    -719.4721    72.474052    62.764371    36.158319    129710.56    -307878.5 
    4500    1960.5078    164480.68    72.474661    72.474662    36.158622          120    35351.022    35161.721   -26524.047   -2427.5148   -3010.2309    2260.3082    72.474661    62.764898    36.158622    14662.899   -308053.93 
    4510    1881.4623    164484.84    72.475272    72.475272    36.158927          120    -58959.06   -56806.531   -146086.53   -1328.5695    1981.7391    2530.9983    72.475272    62.765427    36.158927   -87284.039   -307874.12 
    4520    1955.2352       164489    72.475883    72.475884    36.159232          120    96805.362    85668.768    37834.383   -3687.3925   -636.53199   -1500.3625    72.475883    62.765957    36.159232    73436.171   -308035.78 
    4530    1909.0377    164493.18    72.476497    72.476498    36.159538          120    123607.71    115305.05    78398.602   -3210.5235   -4853.9607   -1076.7656    72.476497    62.766488    36.159538    105770.45   -307929.02 
    4540    1934.7742    164497.38    72.477114    72.477115    36.159846          120   -40434.505   -37140.007   -119909.32   -1716.0696    1583.2926    3431.9498    72.477114    62.767023    36.159846   -65827.945   -307983.25 
    4550    1937.9997    164501.59    72.477732    72.477733    36.160154          120   -608.87036   -4767.3405   -79532.654   -1601.3886    3202.8201    1793.3695    72.477732    62.767558    36.160154   -28302.955   -307988.29 
    4560    1904.4069    164505.81    72.478351    72.478352    36.160463          120    144367.32     134195.6    101927.92    -1447.093   -4633.8223   -2264.9155    72.478351    62.768094    36.160463    126830.28   -307909.75 
    4570    1965.4039    164510.05    72.478974    72.478975    36.160774          120     48632.64     45193.38   -9257.4246   -1724.4083   -1369.3255   -487.88735    72.478974    62.768633    36.160774    28189.532   -308042.61 
    4580    1880.2747     164514.3    72.479599    72.479599    36.161086          120   -58193.361   -59632.651   -146266.67   -1211.9469    5190.1984    2614.3676    72.479599    62.769175    36.161086   -88030.893   -307851.65 
    4590    1949.8154    164518.56    72.480224    72.480225    36.161398          120    81916.295    76503.738    23562.432    330.35299   -1527.8835    411.44742    72.480224    62.769716    36.161398    60660.822   -308003.17 
    4600    1907.3953    164522.84    72.480852    72.480853    36.161711          120    129998.66    124130.63    89965.405    90.402692   -3932.8659   -1699.9258    72.480852     62.77026    36.161711    114698.23   -307906.06 
    4610    1905.8079    164527.14    72.481484    72.481484    36.162026          120   -26452.224   -31731.667   -102416.79   -1663.0951    2426.7438    49.289072    72.481484    62.770807    36.162026   -53533.562   -307901.09 
    4620    1930.0518    164531.45    72.482116    72.482117    36.162342          120   -11013.797   -15108.504   -91764.735   -888.90686    1453.5497    1866.0596    72.482116    62.771355    36.162342   -39295.679   -307951.98 
    4630    1884.0461    164535.76     72.48275    72.482751    36.162658          120    137897.11    135805.05    96197.436    2072.4859   -3772.3508    890.22949     72.48275    62.771904    36.162658    123299.86   -307846.36 
    4640    1947.4815     164540.1    72.483388    72.483388    36.162976          120    63612.185    58784.611     12272.33   -134.99692   -1580.5542   -464.88744    72.483388    62.772456    36.162976    44889.709    -307985.7 
    4650    1869.3702    164544.46    72.484027    72.484028    36.163295          120   -56634.801   -64473.112   -144869.78    -3748.434    2204.9641    597.42083    72.484027     62.77301    36.163295   -88659.232   -307808.12 
    4660    1954.4446    164548.82    72.484668    72.484669    36.163615          120    69997.677    67830.221    7441.9893    689.30587   -1473.6059    2379.7165    72.484668    62.773565    36.163615    48423.296   -307994.66 
    4670    1887.3944     164553.2    72.485311    72.485312    36.163936          120    134245.34    134311.28    98350.398    2606.6948   -3742.6415    1193.3124    72.485311    62.774121    36.163936    122302.34    -307841.9 
    4680    1935.6577    164557.61    72.485958    72.485958    36.164258          120   -16347.575   -23089.465   -88302.754   -3030.1201    156.91022    394.32823    72.485958    62.774681    36.164258   -42579.931   -307945.69 
    4690    1930.0892    164562.02    72.486605    72.486606    36.164581          120   -20365.161   -26150.627   -103830.52   -3139.3508    949.46766    2197.8241    72.486605    62.775242    36.164581   -50115.437   -307930.96 
    4700    1898.7152    164566.44    72.487255    72.487255    36.164905          120    131108.43     132227.1    88670.383    3047.6844   -3437.4963     2277.835    72.487255    62.775805    36.164905    117335.31   -307857.46 
    4710    1982.7354    164570.88    72.487907    72.487908    36.165231          120    73964.512    73113.648    26284.604    942.15057   -2759.9027    1442.8309    72.487907     62.77637    36.165231    57787.588   -308040.92 
    4720    1872.6502    164575.34    72.488562    72.488563    36.165558          120   -57944.548   -63190.812   -142025.32    -4796.962    1563.1577    2125.0586    72.488562    62.776937    36.165558   -87720.226    -307793.7 
    4730    1986.3112    164579.81    72.489218    72.489218    36.165885          120    56744.274    54840.763   -6270.3774    469.14934   -865.97244    1787.5301    72.489218    62.777505    36.165885    35104.887   -308043.75 
    4740     1893.306    164584.29    72.489876    72.489876    36.166213          120    138510.14    139809.15    100254.39    3864.6459   -3322.1753    1439.3644    72.489876    62.778075    36.166213    126191.23    -307832.6 
    4750    1960.2877     164588.8    72.490537    72.490538    36.166543          120   -6663.9211   -7160.3462   -72883.647   -2294.7553    480.03044     2467.586    72.490537    62.778648    36.166543   -28902.638   -307980.92 
    4760    1910.0367    164593.32    72.491201    72.491201    36.166874          120   -33184.261   -35672.053   -110828.16   -2098.8953    1200.2669    1430.9203    72.491201    62.779222    36.166874   -59894.824   -307866.06 
    4770    1929.5913    164597.84    72.491865    72.491865    36.167205          120    126499.48    125860.77    79319.151    3737.2671   -2312.0012    42.111584    72.491865    62.779797    36.167205     110559.8   -307906.46 
    4780    1943.7732    164602.39    72.492532    72.492533    36.167538          120     88126.36    89211.678    38318.912    1219.9366    40.741828    2073.2918    72.492532    62.780375    36.167538     71885.65   -307936.35 
    4790    1882.8921    164606.95    72.493203    72.493203    36.167873          120   -58630.212    -57608.09   -134946.78   -1948.8602    2516.5812    3385.8543    72.493203    62.780956    36.167873   -83728.359   -307797.65 
    4800    1975.8145    164611.53    72.493874    72.493875    36.168208          120    42821.848    41941.718   -19182.693    1636.2814   -1347.4455   -409.55661    72.493874    62.781537    36.168208    21860.291   -308001.68 
    4810    1870.3542    164616.12    72.494548    72.494548    36.168544          120    146168.64    144835.01    101195.81    3007.3909   -783.65194   -644.72926    72.494548    62.782121    36.168544    130733.15   -307763.95 
    4820    1977.0822    164620.73    72.495225    72.495225    36.168882          120     5235.981    8246.2356   -59421.534   -669.86272    4122.2248     4351.727    72.495225    62.782707    36.168882   -15313.106   -307998.12 
    4830    1896.9663    164625.35    72.495904    72.495904     36.16922          120    -44734.94   -42109.583   -116228.78   -575.39037    1232.8408    2690.9362    72.495904    62.783295     36.16922     -67691.1   -307817.07 
    4840    1948.0193    164629.99    72.496584    72.496584     36.16956          120    119520.65    117848.97    70665.732      2809.84   -2434.0737   -3206.7601    72.496584    62.783884     36.16956    102678.45   -307927.92 
    4850    1950.3914    164634.64    72.497267    72.497268    36.169901          120     99955.82    100555.23    48968.167    555.73791     2737.701    1085.6214    72.497267    62.784476    36.169901    83159.738   -307928.64 
    4860    1923.5162    164639.32    72.497953    72.497954    36.170243          120   -56173.125   -51007.467   -126453.44   -1630.0803    5488.7674    6080.3038    72.497953     62.78507    36.170243   -77878.011   -307866.32 
    4870    1976.7955       164644    72.498641    72.498641    36.170586          120    27023.791    28031.682   -31654.507     1787.832   -938.77641    -885.8523    72.498641    62.785665    36.170586    7800.3222    -307981.8 
    4880    1927.3019     164648.7     72.49933     72.49933     36.17093          120    146443.89     144815.4     103670.1    1435.3764   -2025.7881   -2755.2157     72.49933    62.786262     36.17093    131643.13   -307867.41 
    4890    1990.2494    164653.42    72.500023    72.500023    36.171275          120    16803.033    21078.964   -41879.193   -1773.5393     5904.432    4427.4913    72.500023    62.786862    36.171275   -1332.3987   -308005.72 
    4900    1923.3555    164658.15    72.500718    72.500718    36.171622          120   -53076.523   -48270.181   -120472.05    988.39664    5188.3671    3200.5158    72.500718    62.787464    36.171622   -73939.586    -307854.3 
    4910    1979.0131    164662.89    72.501413    72.501414    36.171969          120    106514.32    106647.56     61597.97    2195.8687   -3262.2012   -2544.3118    72.501413    62.788067    36.171969    91586.617   -307974.84 
    4920    1949.2202    164667.65    72.502112    72.502113    36.172318          120    109614.47    111762.05    65426.811   -1400.8505    162.80187    454.15019    72.502112    62.788672    36.172318    95601.109   -307906.87 
    4930    1931.3991    164672.44    72.502815    72.502815    36.172668          120   -50827.381   -44275.886   -117205.68   -616.09876    8261.5027    3659.6736    72.502815     62.78928    36.172668   -70769.649   -307864.79 
    4940     1977.378    164677.23    72.503518    72.503519    36.173019          120    12152.803    16036.122   -44385.138    2085.9859    1492.1156    227.59531    72.503518    62.789889    36.173019   -5398.7379    -307964.1 
    4950    1909.0692    164682.04    72.504223    72.504224    36.173371          120    145220.49    146761.01    108319.66   -639.58746   -4560.9179   -1149.5061    72.504223      62.7905    36.173371    133433.72    -307809.8 
    4960    1982.4036    164686.87    72.504932    72.504933    36.173725          120    30387.369    35279.478   -25038.171   -1311.3938    3525.6854    2010.1571    72.504932    62.791114    36.173725    13542.892   -307969.98 
    4970    1921.1502    164691.71    72.505643    72.505644     36.17408          120   -57354.733   -51066.648    -125878.5    1231.1875    6543.5425    1847.7154    72.505643     62.79173     36.17408   -78099.961    -307830.8 
    4980     1962.385    164696.57    72.506356    72.506356    36.174435          120    95806.573    98105.118    53124.392   -832.63152   -2720.1973   -735.97618    72.506356    62.792347    36.174435    82345.361   -307920.25 
    4990    1959.2476    164701.44    72.507071    72.507072    36.174792          120    119426.77    121350.69     77943.82   -1172.4046   -3355.9307    878.30924    72.507071    62.792966    36.174792    106240.43   -307909.42 
    5000    1937.8718    164706.34     72.50779     72.50779    36.175151          120   -41158.791   -36029.791   -110233.08    630.95203    5017.8776    2103.7998     72.50779    62.793589    36.175151   -62473.886   -307859.15 
    5010     1983.668    164711.25     72.50851    72.508511     36.17551          120    2420.2876    5735.1007   -56009.148   -702.41482    3116.6273   -670.18542     72.50851    62.794212     36.17551   -15951.253    -307959.2 
    5020    1922.0493    164716.17    72.509232    72.509233     36.17587          120    143884.95    142763.79    106943.68    -1143.103   -4381.3797    -197.8369    72.509232    62.794838     36.17587    131197.48   -307817.68 
    5030    2008.8474    164721.12    72.509958    72.509958    36.176232          120    46869.421    47482.246    -9024.748    85.131827   -1286.0715    2270.2046    72.509958    62.795466    36.176232    28442.306   -308008.97 
    5040    1909.2976    164726.08    72.510686    72.510687    36.176596          120   -58434.512   -53510.805   -128195.69   -73.090339    5245.8961   -512.77185    72.510686    62.796097    36.176596   -80047.002   -307785.17 
    5050    2000.6217    164731.05    72.511415    72.511416    36.176959          120    85880.612    85790.483    39363.312   -830.30945    849.19286   -1998.8723    72.511415    62.796728    36.176959    70344.802   -307984.74 
    5060     1946.306    164736.04    72.512148    72.512148    36.177325          120    130332.86    126237.83     87406.82   -815.68935    -4351.899    1588.2196    72.512148    62.797363    36.177325    114659.17   -307861.51 
    5070    1954.8871    164741.06    72.512884    72.512884    36.177692          120   -30730.547   -27776.424   -97274.775   -106.42081     1105.902    1568.4701    72.512884       62.798    36.177692   -51927.249   -307878.61 
    5080    1988.9379    164746.08    72.513621    72.513622     36.17806          120   -10943.131   -4678.1489   -71273.915   -51.407641    5455.4947   -2488.0434    72.513621    62.798639     36.17806   -28965.065   -307951.24 
    5090    1926.6065    164751.12     72.51436    72.514361    36.178429          120    141979.99    139044.24    101370.11   -1779.7373    -580.5607   -347.60548     72.51436    62.799279    36.178429    127464.78   -307809.81 
    5100    2016.1278    164756.18    72.515103    72.515103    36.178799          120    61927.661     59087.78    6591.8733     -2054.89   -3257.1978    3208.6679    72.515103    62.799922    36.178799    42535.772   -308006.74 
    5110    1916.1976    164761.26    72.515848    72.515849    36.179171          120   -62288.749   -54831.901   -131578.87   -18.329718    3486.1836    462.48988    72.515848    62.800567    36.179171   -82899.839   -307780.56 
    5120     2018.446    164766.35    72.516594    72.516595    36.179543          120    72341.381    76384.933    24716.595   -1145.2953    4886.0044   -1823.9603    72.516594    62.801214    36.179543    57814.303   -308006.34 
    5130    1933.0242    164771.45    72.517343    72.517344    36.179917          120    136553.28    132613.34    92840.345   -4123.4799   -1834.8593    1677.5948    72.517343    62.801862    36.179917    120668.99   -307812.75 
    5140    1997.4355    164776.59    72.518096    72.518097    36.180293          120   -19914.683   -18071.455   -88177.245   -2383.9549     -2468.29    2788.0802    72.518096    62.802514    36.180293   -42054.461   -307953.85 
    5150    1959.9273    164781.73     72.51885    72.518851    36.180669          120   -23049.438   -15663.649   -83939.683   -71.516196    4800.7482   -1234.3926     72.51885    62.803167    36.180669   -40884.257   -307868.74 
    5160    1954.9067    164786.88    72.519606    72.519606    36.181046          120    134372.19    134765.24    95826.579   -2940.1326     3546.552   -806.18352    72.519606    62.803822    36.181046    121654.67   -307854.52 
    5170    2001.7548    164792.05    72.520365    72.520366    36.181425          120    73868.208     71828.54    17160.623   -3933.6094   -4232.2273    2055.4119    72.520365    62.804479    36.181425     54285.79   -307956.32 
    5180    1911.2643    164797.24    72.521127    72.521127    36.181805          120   -60005.816   -55646.478   -133007.56   -1632.8147    -967.4867    373.84543    72.521127    62.805139    36.181805   -82886.618   -307754.21 
    5190    2004.7341    164802.44    72.521889     72.52189    36.182185          120    56322.786    61361.176    9914.9987   -969.97561    6098.0356   -2173.0302    72.521889    62.805799    36.182185    42532.987   -307959.39 
    5200    1917.7473    164807.66    72.522654    72.522655    36.182567          120    138555.68     138433.5    96214.371   -1804.6077    390.22714     392.8841    72.522654    62.806462    36.182567    124401.18   -307763.22 
    5210    1973.7485     164812.9    72.523423    72.523423     36.18295          120   -8189.8729   -7000.5105   -80421.009   -2198.7324   -4896.1377    1751.0767    72.523423    62.807127     36.18295   -31870.464   -307887.08 
    5220     1929.953    164818.15    72.524193    72.524193    36.183334          120    -34490.31   -29001.283   -98199.912   -2097.3717    2274.4595    -1807.573    72.524193    62.807794    36.183334   -53897.168   -307786.63 
    5230    1945.6851     164823.4    72.524964    72.524964    36.183719          120    122989.77    128243.61    87140.618     27.46319    5387.0889   -1448.4874    72.524964    62.808462    36.183719    112791.33   -307819.58 
    5240    1952.1843    164828.68    72.525738    72.525738    36.184105          120    83131.535    84892.889     25751.96    784.56337   -1228.1563    2451.6245    72.525738    62.809132    36.184105    64592.128   -307832.31 
    5250    1914.9599    164833.98    72.526514    72.526515    36.184492          120   -57817.553   -56933.749      -137345   -2021.6152   -2736.2707    801.86842    72.526514    62.809804    36.184492   -84032.099   -307746.42 
    5260    1973.9643    164839.27    72.527291    72.527292     36.18488          120     39177.65    45684.315   -6463.8593   -1861.6454    4286.7529   -2847.9478    72.527291    62.810477     36.18488    26132.702   -307875.73 
    5270    1910.0378    164844.59     72.52807    72.528071    36.185269          120    135905.93     142766.1    98455.919    1761.3417    4502.2281     741.8138     72.52807    62.811152    36.185269    125709.32   -307730.77 
    5280    1976.9587    164849.92    72.528853    72.528853    36.185659          120    2144.2132     1798.351   -74877.069    1245.6875   -2318.9752    3795.0653    72.528853     62.81183    36.185659   -23644.835   -307876.52 
    5290    1933.0956    164855.26    72.529636    72.529637     36.18605          120   -40674.393   -41512.688   -112133.74   -2057.9305   -739.60678   -1000.2291    72.529636    62.812508     36.18605   -64773.607   -307776.98 
    5300    1948.9083    164860.61     72.53042    72.530421    36.186441          120    109543.93    117458.32    76661.649   -487.84791    6081.6414   -2422.6747     72.53042    62.813187    36.186441     101221.3   -307809.17 
    5310    1980.0488    164865.97    72.531207    72.531207    36.186834          120    88939.271    95460.735    35513.137    1401.0417    2025.4486    3357.3164    72.531207    62.813868    36.186834    73304.381   -307875.48 
    5320    1919.2798    164871.35    72.531996    72.531996    36.187227          120   -51254.027   -55588.762   -140324.42    709.04368   -3460.4185    3180.8601    72.531996    62.814551    36.187227   -82389.068   -307738.94 
    5330    1992.1845    164876.73    72.532785    72.532785    36.187621          120    27749.942    27985.759   -26807.308   -691.18148    3071.4309   -2469.1144    72.532785    62.815235    36.187621    9642.7975   -307898.39 
    5340    1930.9623    164882.13    72.533576    72.533576    36.188015          120    132021.49    142288.11    98847.263   -1265.0918    5855.6235     7.612418    72.533576     62.81592    36.188015    124385.62   -307758.46 
    5350    1987.1297    164887.54    72.534369     72.53437    36.188411          120    11821.197    15705.667   -63920.774     293.3838   -817.15676    4160.4196    72.534369    62.816607    36.188411   -12131.303   -307882.14 
    5360    1945.2616    164892.96    72.535164    72.535164    36.188808          120   -45502.224   -50345.914   -129645.43    1694.4545   -1160.2472    589.02998    72.535164    62.817295    36.188808   -75164.524   -307785.62 
    5370    1977.4739    164898.38    72.535959    72.535959    36.189204          120    100734.59    104428.63     60333.78   -1291.2371    5992.9859   -1597.3565    72.535959    62.817983    36.189204    88498.997   -307853.95 
    5380    1984.2981    164903.81    72.536756    72.536756    36.189602          120    95434.386    106078.67    48303.748   -2700.2696    4299.1168    2033.6329    72.536756    62.818674    36.189602    83272.267   -307867.19 
    5390    1942.6307    164909.26    72.537555    72.537555    36.190001          120   -51120.828   -49697.953   -138854.64    1377.3108   -2339.6421    1918.0641    72.537555    62.819366    36.190001   -79891.139    -307771.2 
    5400     2022.197    164914.72    72.538354    72.538355      36.1904          120    18326.435    13736.938   -49406.963    1565.8264    1456.4804   -1247.7955    72.538354    62.820058      36.1904   -5781.1965    -307945.8 
    5410     1922.244    164920.17    72.539155    72.539155    36.190799          120     134182.5    140112.04    97386.038   -2663.6267     6036.262     210.4177    72.539155    62.820751    36.190799    123893.53   -307720.72 
    5420    2029.6804    164925.65    72.539958    72.539958    36.191199          120    18742.812    27826.691    -45566.84   -861.46913    1055.0759    2028.8085    72.539958    62.821447    36.191199     334.2213   -307957.37 
    5430    1934.9301    164931.14    72.540762    72.540762    36.191601          120   -52846.329   -55247.667   -138039.67    2910.5368    -3232.693   -1196.0221    72.540762    62.822143    36.191601   -82044.557   -307744.43 
    5440    1998.5194    164936.62    72.541566    72.541566    36.192002          120    96923.784    94183.159    45921.962    78.024612    2546.2915    -1579.365    72.541566     62.82284    36.192002    79009.635   -307883.65 
    5450    1981.7603    164942.12    72.542372    72.542373    36.192404          120    104936.29    111648.31    61526.936   -1277.7747    4278.5556    2688.5091    72.542372    62.823538    36.192404    92703.846   -307842.67 
    5460    1962.1544    164947.64    72.543181    72.543181    36.192808          120   -47736.059   -42443.508   -125730.41    1801.5055    -1943.852    717.26631    72.543181    62.824238    36.192808   -71969.991   -307797.61 
    5470    2008.0709    164953.15     72.54399     72.54399    36.193211          120    6796.4123    3513.1172   -64285.502    2116.5314   -2046.4802   -3602.0011     72.54399    62.824938    36.193211   -17991.991   -307897.79 
    5480    1944.9424    164958.68    72.544799      72.5448    36.193615          120    136396.49    135289.05    95370.052   -259.05245    2839.0911    652.67726    72.544799     62.82564    36.193615    122351.87   -307753.24 
    5490    2028.5615    164964.22    72.545612    72.545612     36.19402          120    32687.861    37785.824   -26568.111    -4.669062     2101.787    3929.3939    72.545612    62.826343     36.19402    14635.191   -307938.14 
    5500    1924.2438    164969.77    72.546425    72.546426    36.194426          120   -60397.014   -57462.694   -139406.61    1585.0019   -2155.5725   -1661.7106    72.546425    62.827048    36.194426   -85755.441   -307703.72 
    5510    2025.0762    164975.32    72.547239    72.547239    36.194832          120    85431.834    81978.907    33347.715    1551.2225   -1477.9535   -3524.3777    72.547239    62.827752    36.194832    66919.485   -307925.48 
    5520    1947.6229    164980.88    72.548054    72.548055    36.195239          120    117557.19    115485.92    71314.781   -455.67794    2125.6171     3224.962    72.548054    62.828459    36.195239    101452.63   -307751.14 
    5530    1983.3964    164986.46    72.548872    72.548873    36.195647          120   -40017.976   -36143.497   -112287.93   -501.04924    1843.4744    3262.3955    72.548872    62.829167    36.195647   -62816.468   -307828.86 
    5540    1988.5352    164992.05     72.54969    72.549691    36.196055          120   -10531.849   -8796.8416   -75505.938    2528.8274   -3117.6634   -3599.3929     72.54969    62.829876    36.196055   -31611.543   -307837.66 
    5550    1951.1291    164997.63    72.550509     72.55051    36.196464          120    136967.77    131941.46    91324.872    1044.0556   -1144.7873   -359.46706    72.550509    62.830585    36.196464    120078.04   -307752.32 
    5560    2015.0609    165003.24    72.551331    72.551331    36.196874          120    48419.686    46346.962   -11263.242   -1716.0226    3188.7087    5216.3885    72.551331    62.831296    36.196874    27834.469   -307892.08 
    5570    1937.9184    165008.85    72.552153    72.552154    36.197284          120   -65845.961   -61772.101   -136183.57    1125.5706    244.07788    755.99559    72.552153    62.832009    36.197284   -87933.877   -307718.43 
    5580    2007.4525    165014.46    72.552976    72.552977    36.197695          120    73570.385     72403.95     18537.94    3178.2874   -2878.9624   -2120.5022    72.552976    62.832721    36.197695    54837.425   -307871.58 
    5590    1952.7292    165020.09    72.553801    72.553801    36.198106          120    128116.22    122431.25    76746.039    -1306.667    -596.6991    3330.5398    72.553801    62.833435    36.198106    109097.84    -307746.4 
    5600     1987.221    165025.73    72.554628    72.554628    36.198519          120   -30004.755   -30788.881   -96926.645    -1347.732    2957.9206    3737.6662    72.554628    62.834151    36.198519   -52573.427    -307821.9 
    5610    1968.2866    165031.38    72.555455    72.555456    36.198931          120   -21155.264   -18902.643   -86986.484     3752.529   -47.699657   -726.39241    72.555455    62.834868    36.198931   -42348.131   -307778.06 
    5620     1966.133    165037.03    72.556283    72.556284    36.199344          120    132826.66    130761.94    82209.687     755.6918   -3891.8926    969.88578    72.556283    62.835585    36.199344    115266.09    -307769.5 
    5630    2004.7347    165042.69    72.557113    72.557114    36.199759          120    62704.494    57656.628    4113.4027   -2550.5243    274.28319    3484.2872    72.557113    62.836304    36.199759    41491.508   -307853.31 
    5640    1941.8739    165048.37    72.557945    72.557946    36.200174          120   -63768.155   -64123.337   -136296.45    1696.0718    3306.9223    1100.9641    72.557945    62.837025    36.200174   -88062.647   -307711.81 
    5650    2018.7717    165054.05    72.558777    72.558778    36.200589          120    58023.938    61555.678    1322.3575    2324.5825   -2194.0591    111.76819    72.558777    62.837745    36.200589    40300.658   -307879.28 
    5660    1965.1538    165059.74    72.559611    72.559611    36.201005          120    131779.72    128940.45    84134.735   -1471.1538   -3308.5049    2015.9769    72.559611    62.838467    36.201005    114951.64   -307757.35 
    5670    1996.4371    165065.44    72.560446    72.560447    36.201422          120   -17478.362   -22349.168   -87579.081   -1553.7923    2763.8984    1647.5729    72.560446    62.839191    36.201422    -42468.87   -307825.12 
    5680    1999.1022    165071.15    72.561283    72.561283    36.201839          120   -31812.715   -28903.141   -102078.41    888.78588    1327.9091    424.00436    72.561283    62.839915    36.201839   -54264.755   -307828.13 
    5690    1975.0202    165076.86    72.562119     72.56212    36.202256          120    121684.24    124842.88     79112.56    341.51457   -3595.7279    926.22871    72.562119    62.840639    36.202256    108546.56   -307772.02 
    5700    2027.9069    165082.58    72.562958    72.562959    36.202675          120    73869.359    69187.647    19866.814   -2892.5804    32.547782    1922.6145    72.562958    62.841366    36.202675     54307.94   -307887.67 
    5710    1957.9272    165088.32    72.563798    72.563799    36.203094          120   -60561.877   -63076.957   -140440.63   -2330.9649    2716.6047    2118.5275    72.563798    62.842093    36.203094   -88026.489   -307729.39 
    5720    2034.4164    165094.05    72.564639    72.564639    36.203513          120    44708.801    49979.755   -10592.971    137.72074   -1992.0026    774.02604    72.564639    62.842821    36.203513    28031.862   -307898.42 
    5730    1962.1165     165099.8     72.56548    72.565481    36.203933          120    132205.85    132459.06    92755.671   -2150.0748   -2654.3294    1819.9698     72.56548     62.84355    36.203933     119140.2   -307734.53 
    5740    2021.5487    165105.56    72.566324    72.566325    36.204354          120   -6110.9874   -9852.3207   -75467.092   -4413.6009    1912.3463    3566.1393    72.566324    62.844281    36.204354     -30476.8   -307864.77 
    5750    1978.4201    165111.32    72.567169    72.567169    36.204776          120   -37515.264   -36534.004   -112484.17   -1390.8097    410.03375    1601.6092    72.567169    62.845012    36.204776   -62177.814   -307767.91 
    5760    1982.2982    165117.09    72.568014    72.568014    36.205197          120    115049.43    117480.12    70556.913   -1489.8194   -4054.4476    721.88681    72.568014    62.845744    36.205197    101028.82   -307773.43 
    5770    2021.8121    165122.87    72.568861    72.568861     36.20562          120    82726.765    83759.742    33908.149    -4963.026   -612.66694    3749.0284    72.568861    62.846477     36.20562    66798.218   -307859.26 
    5780    1935.0048    165128.66    72.569709     72.56971    36.206043          120   -57768.311   -58691.863   -134049.68   -2468.7301    3226.9291    2565.6545    72.569709    62.847212    36.206043   -83503.284   -307665.22 
    5790    2033.7227    165134.46    72.570558    72.570559    36.206466          120    36438.653    34896.308   -26915.873    -508.6066   -2455.2867   -187.92212    72.570558    62.847947    36.206466    14806.363   -307882.42 
    5800    1934.8861    165140.26    72.571408    72.571408    36.206891          120    134306.15    138594.06    92968.935   -4547.3768   -3908.0686    3158.9676    72.571408    62.848683    36.206891    121956.38   -307659.97 
    5810     2017.025    165146.08     72.57226    72.572261    36.207316          120    3224.0169     7052.113    -56768.65   -4205.4815    2203.6409    3146.6138     72.57226    62.849422    36.207316   -15497.507    -307842.4 
    5820    1948.3838     165151.9    72.573114    72.573114    36.207741          120   -43836.115   -48053.123   -118666.64   -198.61582    1552.0893    75.608534    72.573114    62.850161    36.207741   -70185.291   -307686.89 
    5830    1996.6502    165157.73    72.573967    72.573967    36.208167          120    109467.04    110997.31    60190.639   -2227.1115   -3748.9791    2417.3733    72.573967      62.8509    36.208167    93551.664   -307792.21 
    5840    1985.7494    165163.57    72.574822    72.574823    36.208594          120    92768.992    99590.458    46679.943   -5117.3298   -1749.5633    3553.1169    72.574822    62.851641    36.208594    79679.798    -307765.9 
    5850    1964.9955    165169.43     72.57568    72.575681    36.209022          120   -53505.493   -54158.356   -126114.95   -2142.9918    2822.1036    1077.7851     72.57568    62.852383    36.209022   -77926.267   -307716.99 
    5860    2025.6681    165175.28    72.576538    72.576538     36.20945          120    23211.067    21559.467    -38140.95    -105.3862   -568.68165    2026.9197    72.576538    62.853126     36.20945    2209.8612   -307850.42 
    5870    1947.7175    165181.14    72.577396    72.577397    36.209878          120    135964.17    141538.51    95871.735   -3293.1495   -3428.8276    3543.7021    72.577396     62.85387    36.209878    124458.14   -307673.81 
    5880    2046.3227    165187.02    72.578258    72.578258    36.210308          120    17728.998    20605.538   -45271.019    -4081.975    1276.8918    1888.1253    72.578258    62.854615    36.210308   -2312.1613   -307890.91 
    5890    1952.4563    165192.91     72.57912     72.57912    36.210738          120   -51484.495   -52809.402   -122741.54   -279.67466     2083.009    1527.1185     72.57912    62.855362    36.210738    -75678.48   -307680.53 
    5900    2022.8862     165198.8    72.579982    72.579983    36.211168          120    97297.354       101133    54809.339   -504.26705   -3201.9361    3462.5839    72.579982    62.856109    36.211168    84413.231   -307835.01 
    5910     1992.558     165204.7    72.580847    72.580847      36.2116          120    105028.03    108545.13    55949.908   -4373.1092   -1270.2717    2923.2838    72.580847    62.856858      36.2116    89841.021   -307764.71 
    5920    1984.5327    165210.62    72.581713    72.581714    36.212032          120   -45291.087   -45705.573   -119350.86   -1935.0844    2390.3006    1175.0714    72.581713    62.857608    36.212032   -70115.839   -307746.35 
    5930    2011.7679    165216.54     72.58258    72.582581    36.212464          120    7140.6721    9098.6643    -47780.04    831.28642   -2031.1514    3223.7316     72.58258    62.858359    36.212464   -10513.568   -307804.56 
    5940    1974.7091    165222.47    72.583448    72.583448    36.212897          120    135538.57     139598.4    98112.436   -2663.8008   -3598.7681    4964.9988    72.583448     62.85911    36.212897    124416.47   -307719.12 
    5950     2025.328    165228.41    72.584318    72.584319    36.213332          120    32352.915    33336.601   -30126.447   -3620.8502    567.14404    1785.1783    72.584318    62.859864    36.213332    11854.356   -307830.55 
    5960    1967.9854    165234.36     72.58519     72.58519    36.213766          120   -55687.354    -56371.27   -127007.74    74.606641   -256.53657    2075.0826     72.58519    62.860619    36.213766   -79688.789   -307700.42 
    5970    2031.2994    165240.31    72.586061    72.586062    36.214201          120    85937.131      88461.9    44233.718   -297.66445   -4341.6687    6235.2524    72.586061    62.861374    36.214201    72877.583   -307838.58 
    5980    1994.5203    165246.28    72.586935    72.586935    36.214637          120    112499.75    116422.91    70474.888   -2731.1854   -1875.5983    4423.6357    72.586935     62.86213    36.214637    99799.183   -307754.86 
    5990    2009.0017    165252.26     72.58781    72.587811    36.215074          120   -37987.558   -38517.476   -111719.63   -1126.7967    2148.3197     1164.661     72.58781    62.862888    36.215074   -62741.554   -307784.61 
    6000    2032.4368    165258.24    72.588686    72.588687    36.215511          120    -1354.741   -3341.5913    -64926.59    300.99728   -2054.5887    4757.0842    72.588686    62.863647    36.215511   -23207.641   -307834.74 
    6010    1987.5117    165264.23    72.589563    72.589564    36.215948          120    132072.41    136075.22    97753.927    -486.3924   -4392.0457    6950.3574    72.589563    62.864406    36.215948    121967.18   -307732.64 
    6020    2057.2577    165270.23    72.590442    72.590443    36.216387          120    42428.219    45854.884   -14291.505   -557.32032    1946.1899    3189.2342    72.590442    62.865168    36.216387    24663.866   -307885.39 
    6030    1984.7682    165276.25    72.591323    72.591323    36.216826          120   -53494.667   -58625.938   -135720.43    224.02885    2731.4865    2766.8506    72.591323     62.86593    36.216826    -82613.68   -307722.84 
    6040    2038.8743    165282.26    72.592203    72.592203    36.217265          120    77481.029    75665.869    28551.102     243.7084   -4109.6955    6173.0832    72.592203    62.866692    36.217265        60566   -307841.75 
    6050    2013.8275    165288.29    72.593085    72.593086    36.217706          120    117468.44    123699.53    79388.798    403.61219   -1543.8598    5971.7087    72.593085    62.867456    36.217706    106852.26   -307783.56 
    6060    2007.8231    165294.33    72.593969     72.59397    36.218147          120    -26478.22   -29527.196   -104560.97    688.61805    5220.1051    3299.6984    72.593969    62.868222    36.218147    -53522.13   -307769.48 
    6070    2029.9771    165300.37    72.594854    72.594854    36.218588          120   -7641.7009   -17190.719    -80931.51     164.6937    776.22975    3492.8449    72.594854    62.868988    36.218588   -35254.643   -307817.27 
    6080    1990.5613    165306.41    72.595739    72.595739     36.21903          120    126836.65    130600.63    90629.823   -402.40325   -3882.7029    6266.4502    72.595739    62.869755     36.21903    116022.37   -307726.07 
    6090    2057.4441    165312.48    72.596626    72.596627    36.219472          120    55863.348    58694.439   -840.28994    5.4149002    1969.2727    5681.7407    72.596626    62.870523    36.219472    37905.833   -307874.47 
    6100    1971.0616    165318.55    72.597515    72.597515    36.219916          120   -52611.273   -64726.824   -139556.64     326.8526    5123.5152    1788.4964    72.597515    62.871293    36.219916    -85631.58   -307680.17 
    6110    2068.6996    165324.61    72.598403    72.598404    36.220359          120     64698.04    61150.203    11518.462   -1257.3984   -1594.5568    3031.5722    72.598403    62.872062    36.220359    45788.902   -307895.15 
    6120    1993.8621    165330.69    72.599293    72.599293    36.220803          120    122684.16    129215.14    83247.377   -1909.9739    -3015.755    6008.5902    72.599293    62.872832    36.220803    111715.56   -307726.94 
    6130     2041.354    165336.78    72.600184    72.600185    36.221248          120   -16442.469   -23473.952   -94625.983   -280.96682    3344.5149    3256.0124    72.600184    62.873605    36.221248   -44847.468   -307830.85 
    6140    2034.2705    165342.88    72.601076    72.601077    36.221692          120   -20617.752   -30121.612   -95588.282   -590.07833    3361.5495   -36.776135    72.601076    62.874377    36.221692   -48775.882   -307813.17 
    6150    2004.6253    165348.97    72.601968    72.601969    36.222137          120    121200.22    125991.45    81717.547   -2386.2931   -2564.2025    2777.8096    72.601968    62.875149    36.222137    109636.41   -307745.64 
    6160    2067.3303    165355.08    72.602862    72.602863    36.222583          120    67393.381     68456.59    11519.003   -1866.3911   -1128.3595    4558.0247    72.602862    62.875923    36.222583    49122.992   -307883.48 
    6170    1975.6205    165361.19    72.603757    72.603758     36.22303          120   -56138.588   -64138.359   -139059.17   -994.36931    3839.4585    933.67403    72.603757    62.876699     36.22303   -86445.372   -307678.03 
    6180    2061.2793    165367.31    72.604652    72.604652    36.223476          120    50664.868    52168.302   -3325.5874   -1472.1798    1957.8282   -386.87349    72.604652    62.877474    36.223476    33169.194   -307868.67 
    6190    1972.5063    165373.43    72.605547    72.605548    36.223923          120    127232.83    132178.53    86910.179   -1510.1927   -1497.0141    2435.5456    72.605547    62.878249    36.223923    115440.51   -307668.62 
    6200    2040.7112    165379.56    72.606445    72.606446    36.224371          120   -8856.6712   -11158.897   -79840.089   -1830.5096    163.38739    3296.1673    72.606445    62.879027    36.224371   -33285.219   -307820.28 
    6210    1977.8572     165385.7    72.607343    72.607344    36.224819          120   -34616.361   -34212.279   -104857.64   -1943.4623    2498.0934    204.76405    72.607343    62.879805    36.224819   -57895.425   -307679.57 
    6220    2011.1014    165391.84    72.608241    72.608242    36.225267          120    114173.76    119755.98    72496.474   -275.77478    1450.8354   -859.85067    72.608241    62.880582    36.225267    102142.07   -307750.94 
    6230    2021.0861    165397.98    72.609141    72.609142    36.225716          120    76887.793    79895.729     24313.64   -734.38902    -844.9199    2875.4519    72.609141    62.881361    36.225716    60365.721   -307771.85 
    6240    1971.6044    165404.14    72.610042    72.610043    36.226166          120   -58382.165   -59250.325   -133768.38   -1716.6256   -563.08993    3305.2242    72.610042    62.882142    36.226166   -83800.291   -307660.67 
    6250    2047.9486     165410.3    72.610943    72.610943    36.226615          120    34436.302    38725.328   -20896.679   -709.89258    2387.9189   -1746.1105    72.610943    62.882922    36.226615     17421.65   -307828.23 
    6260    1970.2711    165416.46    72.611844    72.611844    36.227065          120     129188.1    136162.66     86232.23    123.67282    725.07955    315.96918    72.611844    62.883702    36.227065    117194.33   -307653.56 
    6270    2037.4801    165422.63    72.612747    72.612747    36.227515          120   -261.50926   -349.33988    -67335.88   -380.42661   -1809.0253    4816.5548    72.612747    62.884484    36.227515    -22648.91   -307802.28 
    6280    1981.0481     165428.8     72.61365    72.613651    36.227966          120   -44733.212   -46707.967   -114829.64   -306.41429    1086.7953    1048.3071     72.61365    62.885266    36.227966    -68756.94   -307674.65 
    6290    2012.1602    165434.97    72.614553    72.614553    36.228416          120    105297.09    111929.78    59635.015    423.14282    2419.8914   -1991.8772    72.614553    62.886048    36.228416    92287.292   -307743.02 
    6300    2003.6804    165441.15    72.615457    72.615458    36.228867          120    86367.482    92142.803    32932.364   -486.77832    -1105.417    3075.6045    72.615457    62.886831    36.228867    70480.883   -307722.55 
    6310    1984.5368    165447.34    72.616363    72.616363    36.229319          120   -53895.184   -60562.556   -129375.22    74.430711   -707.16576    3536.0381    72.616363    62.887615    36.229319   -81277.653   -307678.54 
    6320    2020.1616    165453.52    72.617267    72.617268     36.22977          120    23883.033     21540.97   -35171.858    1520.4929    2552.0666   -1955.0747    72.617267    62.888399     36.22977    3417.3816    -307756.8 
    6330    1973.6927    165459.71    72.618173    72.618173    36.230222          120     130161.2    139586.47     85299.32   -1.6740984    633.38396     752.0776    72.618173    62.889183    36.230222       118349    -307650.8 
    6340    2030.3257    165465.91     72.61908     72.61908    36.230675          120    11411.809    11164.243   -55676.068   -1619.2706   -797.86283     3207.301     72.61908    62.889968    36.230675   -11033.338   -307775.07 
    6350    1973.1905    165472.11    72.619987    72.619987    36.231127          120   -46288.711   -57897.345   -120760.47    1203.2609     737.1708   -65.062125    72.619987    62.890754    36.231127   -74982.174   -307647.48 
    6360    2008.4588    165478.31    72.620893    72.620894    36.231579          120     96640.67    100204.51    49007.218    1779.9833     931.7526   -101.88018    72.620893    62.891539    36.231579      81950.8   -307723.58 
    6370    2010.8352    165484.52    72.621801    72.621802    36.232032          120    96104.251    103286.59    43943.021   -1702.1093    1551.6864    1630.8076    72.621801    62.892325    36.232032    81111.287   -307727.13 
    6380    1973.5518    165490.73     72.62271    72.622711    36.232486          120    -46190.25   -54821.797   -124560.98   -1642.0192    804.82396     454.6952     72.62271    62.893113    36.232486   -75191.007   -307643.64 
    6390    2033.8693    165496.94    72.623619    72.623619    36.232939          120    12867.375    7206.4872   -48906.006    2074.8714   -1145.0954    228.12131    72.623619    62.893899    36.232939   -9610.7146   -307775.82 
    6400    1977.8695    165503.15    72.624527    72.624528    36.233393          120    130851.79    136513.09    87144.197    631.19318     1874.721     977.3758    72.624527    62.894686    36.233393    118169.69   -307648.75 
    6410    2041.8789    165509.38    72.625438    72.625438    36.233847          120    24641.251    25162.491   -41461.665   -3086.7765    3540.1099   -608.78492    72.625438    62.895475    36.233847    2780.6923   -307790.02 
    6420    1990.6196    165515.61    72.626349    72.626349    36.234301          120   -54064.959   -59495.303   -128605.93   -1095.8388   -1426.2713   -1434.8383    72.626349    62.896264    36.234301   -80722.064   -307673.61 
    6430    2038.1438    165521.83    72.627259    72.627259    36.234755          120    88200.641    88306.592    38092.702    2096.3107   -942.09576    1082.9479    72.627259    62.897052    36.234755    71533.311   -307777.61 
    6440    2023.5687    165528.06     72.62817     72.62817     36.23521          120    107692.42     108804.1    55685.519   -649.99138    4043.5927    385.92878     72.62817    62.897841     36.23521    90727.349   -307743.82 
    6450    2011.8836     165534.3    72.629082    72.629083    36.235665          120   -45077.137    -44699.81   -116413.42   -4958.2103    874.11421   -2852.5624    72.629082    62.898631    36.235665   -68730.124   -307716.07 
    6460    2054.2821    165540.53    72.629994    72.629995     36.23612          120   -259.60882   -90.066202   -63677.024   -538.42382   -2801.3503    105.41902    72.629994    62.899421     36.23612   -21342.233   -307810.01 
    6470    1981.3756    165546.77    72.630906    72.630907    36.236575          120    134028.83    131003.37    84267.352    2643.4732     1391.805    2272.9163    72.630906     62.90021    36.236575    116433.18   -307646.07 
    6480    2072.9643    165553.01     72.63182     72.63182    36.237031          120    35929.656     35200.58   -22452.515   -3657.2396    2722.6431   -1087.2936     72.63182    62.901002    36.237031    16225.907   -307848.78 
    6490    1968.0657    165559.27    72.632734    72.632734    36.237487          120   -60666.417   -57887.454   -131015.52   -5665.0129   -1954.3734   -1834.1524    72.632734    62.901793    36.237487   -83189.798   -307615.08 
    6500    2049.2573    165565.51    72.633647    72.633648    36.237943          120    81492.114    79099.742    22800.252    2065.4256    -1307.194    2197.1647    72.633647    62.902584    36.237943    61130.703   -307794.29 
    6510    2001.9498    165571.76    72.634562    72.634562    36.238399          120    116018.16    113463.96    67225.188    930.15313     2623.358     2009.726    72.634562    62.903376    36.238399    98902.438    -307686.6 
    6520    2013.3965    165578.03    72.635478    72.635478    36.238856          120   -36178.638   -35651.176   -101659.51   -6270.6499    68.872989   -2095.2211    72.635478     62.90417    36.238856   -57829.775   -307711.78 
    6530    2029.6406    165584.29    72.636393    72.636394    36.239313          120   -8006.7203   -10806.477    -79940.86   -2301.1304    -2902.076   -1162.4114    72.636393    62.904962    36.239313   -32918.019   -307746.03 
    6540    2001.0228    165590.55    72.637309    72.637309    36.239769          120    130339.29    129798.04    80295.973     2211.131    792.94429    3656.2084    72.637309    62.905755    36.239769    113477.77   -307679.31 
    6550    2062.1284    165596.82    72.638226    72.638226    36.240227          120    47728.484    48975.943   -4766.8008   -2363.9521    2102.8787    967.60948    72.638226    62.906549    36.240227    30645.875   -307814.43 
    6560    1984.4843     165603.1    72.639144    72.639144    36.240685          120   -57791.557   -63771.181   -133723.13   -4353.6357   -2475.6696   -3809.7465    72.639144    62.907344    36.240685   -85095.291   -307639.63 
    6570    2078.0464    165609.37     72.64006    72.640061    36.241142          120    70806.092    67715.342    7870.4004    -437.0696   -561.76608    1672.3346     72.64006    62.908138    36.241142    48797.278   -307846.18 
    6580    1994.8919    165615.65    72.640978    72.640979      36.2416          120    119142.86    124450.32    76100.564   -1125.5778    3497.6941    4543.0225    72.640978    62.908933      36.2416    106564.58   -307659.91 
    6590    2053.4874    165621.94    72.641898    72.641898    36.242059          120   -25505.037    -29103.11   -88723.624    -2647.494   -30.232994    -2021.945    72.641898     62.90973    36.242059   -47777.257   -307789.42 
    6600    2020.6279    165628.22    72.642817    72.642817    36.242517          120   -14667.049   -25271.322     -91463.5   -1767.3271   -1728.7435   -1848.2989    72.642817    62.910526    36.242517   -43800.623   -307715.53 
    6610    2014.3436    165634.51    72.643736    72.643736    36.242976          120       125801    128388.33    77673.144   -2562.1133    4025.6632    5037.2286    72.643736    62.911321    36.242976    110620.82   -307700.55 
    6620    2052.9507    165640.81    72.644656    72.644657    36.243435          120    57137.009    61600.281    12621.356   -1676.0408     3732.505     1869.505    72.644656    62.912119    36.243435    43786.215   -307784.33 
    6630    1992.6552    165647.11    72.645578    72.645579    36.243895          120   -54959.193   -65544.262    -129818.4     40.07986   -1255.9344   -2821.9879    72.645578    62.912917    36.243895   -83440.618   -307649.61 
    6640    2055.2393    165653.41    72.646499    72.646499    36.244354          120    61793.115    54468.295   -3199.1723   -1263.9243    2346.7849    1724.7914    72.646499    62.913714    36.244354    37687.413   -307787.86 
    6650    2008.4985    165659.71     72.64742    72.647421    36.244814          120    122670.18    130649.91    85188.032   -2472.9391    5723.4835    3815.5198     72.64742    62.914512    36.244814    112836.04   -307681.06 
    6660    2048.6731    165666.03    72.648344    72.648344    36.245275          120   -16439.383   -15933.066   -75204.174    425.23339     2017.626   -907.06543    72.648344    62.915312    36.245275   -35858.874   -307770.08 
    6670    2020.3667    165672.35    72.649267    72.649268    36.245736          120   -22803.179   -34899.471   -98990.323    1721.0552    939.54862   -2594.7336    72.649267    62.916111    36.245736   -52230.991   -307706.02 
    6680    2037.8909    165678.66     72.65019    72.650191    36.246196          120     118673.8    120025.28    73238.749   -964.18794    3916.4052    1774.8826     72.65019    62.916911    36.246196    103979.28   -307742.77 
    6690    2050.3011    165684.99    72.651115    72.651115    36.246657          120    68215.452    77707.041    24285.389   -1072.7536      3614.02    1824.8408    72.651115    62.917711    36.246657     56735.96   -307769.92 
    6700    2005.2085    165691.32     72.65204    72.652041    36.247119          120   -55947.514   -59301.247   -128124.99    1365.2454    1266.4944   -3027.1633     72.65204    62.918513    36.247119   -81124.583   -307668.97 
    6710    2063.4557    165697.65    72.652965    72.652966    36.247581          120    45780.262    39563.137   -13351.193    1825.3752    1872.2019    -1810.301    72.652965    62.919314    36.247581    23997.402   -307797.44 
    6720    2001.0602    165703.98    72.653891    72.653891    36.248042          120    128372.91    134257.36    88360.167    -487.6205    3286.1541    1728.1911    72.653891    62.920116    36.248042    116996.81   -307657.92 
    6730     2044.014    165710.33    72.654818    72.654818    36.248505          120   -7182.6939    515.65423    -66255.76   -700.65849    1365.4822   -839.18419    72.654818    62.920919    36.248505     -24307.6   -307752.83 
    6740    2017.4167    165716.67    72.655745    72.655746    36.248968          120   -38397.247   -39582.833   -105755.32     2078.589    1200.9474   -2345.9718    72.655745    62.921722    36.248968   -61245.134   -307692.79 
    6750    2012.6456    165723.01    72.656672    72.656672     36.24943          120    111716.59    110351.73    65354.748    1759.0746     3221.033    406.88927    72.656672    62.922524     36.24943    95807.689   -307681.54 
    6760     2046.668    165729.36      72.6576    72.657601    36.249893          120    81116.638     88649.97    33801.818   -992.26574    1911.4512   -848.85804      72.6576    62.923328    36.249893    67856.142   -307755.64 
    6770    1989.6803    165735.72    72.658529     72.65853    36.250357          120   -58920.766   -51424.865   -126926.36   -105.45032    501.37064   -1280.2006    72.658529    62.924133    36.250357   -79090.663   -307628.02 
    6780    2055.5782    165742.07    72.659458    72.659458     36.25082          120    29936.148    29160.167   -27930.708    2960.6133    3310.0149     1114.613    72.659458    62.924937     36.25082    10388.536   -307774.49 
    6790    1992.0856    165748.43    72.660386    72.660387    36.251283          120    129653.31    132628.66    88466.014    624.02274    2543.8743   -1260.6792    72.660386    62.925741    36.251283    116915.99   -307631.05 
    6800    2058.9668     165754.8    72.661317    72.661317    36.251747          120    3853.9989    12328.173   -55909.504   -2194.0379   -483.22295   -2162.4922    72.661317    62.926547    36.251747   -13242.444   -307779.54 
    6810    2001.8862    165761.16    72.662247    72.662247    36.252211          120   -47714.369    -44402.14   -118102.88    1649.2351     2948.146    2347.7564    72.662247    62.927352    36.252211   -70073.128   -307651.94 
    6820    2043.3816    165767.52    72.663176    72.663177    36.252675          120    99155.562    100342.59    54058.075    2580.3992     3002.391    1063.8445    72.663176    62.928157    36.252675    84518.742   -307742.19 
    6830     2048.701    165773.89    72.664106    72.664107    36.253139          120    90334.624    96223.195        44405   -2284.8237   -765.45965   -2949.4163    72.664106    62.928963    36.253139    76987.606   -307753.02 
    6840     2006.997    165780.26    72.665038    72.665038    36.253604          120   -52828.399   -48007.893   -125382.64   -1324.3257    1142.4167    528.64655    72.665038    62.929769    36.253604    -75406.31   -307659.37 
    6850    2080.6746    165786.63    72.665968    72.665969    36.254068          120    14893.031    15780.974   -44351.113    2972.8629    3750.8821    3642.3352    72.665968    62.930575    36.254068   -4559.0359   -307821.91 
    6860     1996.728       165793    72.666898    72.666899    36.254532          120    128554.66    131827.24    88672.487   -865.01081     749.7452   -588.29739    72.666898    62.931381    36.254532    116351.46   -307633.85 
    6870    2079.6472    165799.38     72.66783    72.667831    36.254997          120    18053.013    22873.838   -44253.672   -2236.3636    -307.8981   -1746.0851     72.66783    62.932188    36.254997   -1108.9403   -307818.67 
    6880    1997.2682    165805.75    72.668762    72.668762    36.255462          120   -53474.302   -53428.875   -125783.58    1562.5576    2870.4573    2502.2001    72.668762    62.932994    36.255462   -77562.251   -307634.64 
    6890      2055.32    165812.12    72.669692    72.669693    36.255926          120    90732.186    90088.383    43775.855   -465.51993    2472.2217    1897.8539    72.669692      62.9338    36.255926    74865.475   -307763.55 
    6900    2015.9891     165818.5    72.670624    72.670624    36.256391          120    101616.81    105739.54    50085.786   -1563.8689    523.84716   -886.61976    72.670624    62.934607    36.256391    85814.047   -307675.14 
    6910    2018.2498    165824.88    72.671556    72.671557    36.256856          120   -45842.013    -43029.23   -118908.09    1551.9139    934.12313    235.41338    72.671556    62.935414    36.256856   -69259.776    -307679.8 
    6920    2033.9124    165831.26    72.672487    72.672488     36.25732          120    4267.6686     581.8316   -55089.013   -1080.0348    2297.1004    1911.9234    72.672487    62.936221     36.25732   -16746.504   -307714.91 
    6930    1987.2658    165837.63    72.673418    72.673419    36.257785          120    131308.53    131221.38    82642.653   -2849.2589      1193.91    528.39906    72.673418    62.937027    36.257785    115057.52   -307609.74 
    6940    2056.1174    165844.01    72.674351    72.674351     36.25825          120      30891.4    35823.737   -34018.815    2119.6985    565.08659   -469.28653    72.674351    62.937835     36.25825    10898.774    -307762.7 
    6950     1970.347     165850.4    72.675283    72.675284    36.258715          120   -57924.794   -59547.236   -125420.15    193.16439    1711.4329    762.81687    72.675283    62.938642    36.258715   -80964.061   -307571.82 
    6960    2047.7705    165856.77    72.676214    72.676215     36.25918          120     81355.45    77516.215    29548.534   -4826.9065    655.47907    1594.7714    72.676214    62.939449     36.25918    62806.733   -307742.48 
    6970    2002.1932    165863.15    72.677146    72.677147    36.259645          120    111288.01    112813.38    55495.437     263.4364    351.78958    224.89119    72.677146    62.940256    36.259645    93198.941   -307639.26 
    6980    2020.3867    165869.54    72.678079     72.67808     36.26011          120   -38421.117   -37006.518   -107790.41    3178.2038    1635.6759   -108.25635    72.678079    62.941063     36.26011   -61072.682   -307679.86 
    6990    2028.8836    165875.92    72.679011    72.679012    36.260575          120   -9849.8216   -12320.891   -69312.372   -4143.0116    203.35793    1978.2159    72.679011     62.94187    36.260575   -30494.361    -307697.1 
    7000    2012.4835     165882.3    72.679942    72.679943     36.26104          120    128019.78    126215.58    79237.281   -3131.6239   -309.74522    1485.2584    72.679942    62.942677     36.26104    111157.55   -307659.12 
    7010    2049.1841    165888.68    72.680874    72.680875    36.261505          120    44102.113    44166.685     -19324.1    4047.1933    1924.8768   -367.35604    72.680874    62.943484    36.261505    22981.566   -307740.62 
    7020    2002.9342    165895.06    72.681807    72.681807     36.26197          120   -61551.878   -60921.695   -132971.92    77.465737    356.37816    1121.0962    72.681807    62.944292     36.26197   -85148.496   -307636.82 
    7030    2055.9262    165901.44    72.682738    72.682738    36.262434          120    65933.551    65486.402    15493.754   -5325.4441   -1552.0724    2439.0824    72.682738    62.945098    36.262434    48971.236      -307754 
    7040    2014.1248    165907.81    72.683669    72.683669    36.262899          120    117069.16    114406.56    67249.055    731.57392    1585.4613    567.09746    72.683669    62.945904    36.262899    99574.925   -307660.27 
    7050    2038.7983    165914.19    72.684601    72.684601    36.263364          120    -29069.46   -29458.808   -103883.45    4473.8755    1764.2747   -307.31949    72.684601    62.946711    36.263364    -54137.24   -307714.43 
    7060    2034.6485    165920.57    72.685532    72.685532    36.263828          120   -21579.215   -18959.858   -87249.801   -2786.2743   -2216.8147    2033.2986    72.685532    62.947517    36.263828   -42596.291   -307705.01 
    7070    2010.6488    165926.94    72.686462    72.686462    36.264292          120    120068.25    119394.64    78101.116   -3954.8535    -426.5287    2169.6233    72.686462    62.948323    36.264292    105854.67   -307650.64 
    7080    2063.0004    165933.31    72.687392    72.687393    36.264757          120     54847.61    52641.786    -3550.582     2621.129     2745.396    2.1439442    72.687392    62.949129    36.264757    34646.271   -307766.28 
    7090    1994.5281    165939.69    72.688323    72.688324    36.265221          120   -60544.934    -59012.24   -138585.62    2848.9647   -414.01461    1056.7339    72.688323    62.949935    36.265221   -86047.599   -307614.19 
    7100    2058.5995    165946.05    72.689253    72.689253    36.265685          120    53476.047    56294.718   -258.07738   -3429.2487   -2731.6057    2692.7623    72.689253     62.95074    36.265685    36504.229   -307755.86 
    7110    2021.6106    165952.42    72.690182    72.690182    36.266149          120    118125.37    118993.45    77424.812   -2952.7264     1755.901    1379.6554    72.690182    62.951545    36.266149    104847.87   -307671.58 
    7120     2040.318    165958.79    72.691112    72.691113    36.266613          120   -20610.108   -21646.106   -87519.369    2393.8554    2690.8482    902.58692    72.691112     62.95235    36.266613   -43258.527    -307713.5 
    7130    2042.2865    165965.15    72.692041    72.692042    36.267076          120   -29537.597   -26818.667   -100130.06    1860.8935   -2500.2716    2828.5393    72.692041    62.953155    36.267076   -52162.108   -307716.89 
    7140    2027.2457    165971.51     72.69297     72.69297    36.267539          120    113006.16    117697.97    69384.519   -3401.2312   -1240.7492    1670.5817     72.69297    62.953959    36.267539    100029.55   -307681.79 
    7150    2070.4142    165977.87    72.693899    72.693899    36.268003          120    64224.418    63870.926    16991.851   -2657.9337    3127.8198    342.43677    72.693899    62.954764    36.268003    48362.398   -307778.29 
    7160    2004.9138    165984.24    72.694828    72.694828    36.268466          120   -61675.977   -60267.691    -131280.7    2884.6245     821.2875    2883.9762    72.694828    62.955568    36.268466   -84408.122   -307631.81 
    7170    2090.6882     165990.6    72.695756    72.695756    36.268929          120    41791.511    48596.072   -15202.051      1109.94   -2661.5715    2999.7685    72.695756    62.956372    36.268929    25061.844   -307821.98 
    7180    2013.0977    165996.95    72.696683    72.696684    36.269392          120    123687.94    124789.73    81723.532   -3722.4858    869.75528   -75.983943    72.696683    62.957175    36.269392    110067.07   -307648.51 
    7190    2083.8719    166003.31    72.697612    72.697613    36.269856          120   -11681.247   -11177.443   -70112.275   -1044.6594      3450.11    447.73182    72.697612     62.95798    36.269856   -30990.322   -307805.44 
    7200    2043.0017    166009.67     72.69854    72.698541    36.270319          120    -41421.27   -32839.762   -107108.76    3224.2995    222.15084     4111.723     72.69854    62.958783    36.270319   -60456.598   -307714.07 
    7210    2052.3697    166016.02    72.699467    72.699468    36.270781          120    109194.13     111312.3    60778.819   -588.26497   -636.97515    2127.2798    72.699467    62.959586    36.270781     93761.75   -307734.83 
    7220    2081.7554    166022.37    72.700395    72.700395    36.271244          120    77161.314    74864.627    26472.961    -3209.455    3280.5794   -1412.2254    72.700395    62.960389    36.271244    59499.634   -307799.23 
    7230    2018.2018    166028.73    72.701323    72.701323    36.271707          120   -60813.159   -54047.237   -128886.93    88.849285    4178.8414    1345.0325    72.701323    62.961193    36.271707   -81249.108   -307658.31 
    7240    2084.8206    166035.08    72.702249     72.70225    36.272169          120    29698.102    36214.962   -29537.971    1986.9036    163.84585    3927.5474    72.702249    62.961995    36.272169    12125.031   -307807.13 
    7250    2011.5235    166041.43    72.703175    72.703176    36.272631          120    128418.52    125710.93    80776.054   -1817.5499    912.85875    551.47805    72.703175    62.962797    36.272631    111635.17   -307642.53 
    7260    2076.4842    166047.78    72.704102    72.704103    36.273094          120    2297.0211    1543.5135   -59766.513   -2795.0025     5294.045   -833.11677    72.704102      62.9636    36.273094   -18641.993   -307788.46 
    7270    2007.1907    166054.13    72.705029     72.70503    36.273556          120   -49079.646   -39045.171   -116718.54    734.79958    3061.0316    2778.1609    72.705029    62.964403    36.273556   -68281.118   -307634.17 
    7280    2059.7521    166060.47    72.705954    72.705955    36.274018          120    100198.16    105282.43    49578.305    538.78759   -1670.7621    2934.8839    72.705954    62.965204    36.274018    85019.631   -307750.23 
    7290    2036.3071    166066.81     72.70688    72.706881    36.274479          120    90004.197      84224.6    38098.725   -2237.6278    2536.5022    244.45428     72.70688    62.966006    36.274479    70775.841   -307698.23 
    7300    2022.7257    166073.16    72.707806    72.707807    36.274942          120   -54929.616   -51320.064   -121697.61   -1415.5373    4599.4361    771.76358    72.707806    62.966808    36.274942   -75982.431   -307668.09 
    7310    2066.4975    166079.49    72.708731    72.708732    36.275403          120     14412.74    27597.748   -44548.114    1621.6147   -2135.4331    2979.7331    72.708731    62.967609    36.275403   -845.87552    -307764.8 
    7320    2011.2376    166085.83    72.709656    72.709656    36.275864          120    129644.49    129426.15    83577.048   -126.22728   -1141.8319    2338.0761    72.709656     62.96841    36.275864     114215.9   -307641.73 
    7330    2075.5317    166092.17    72.710581    72.710582    36.276326          120    14746.308    10469.522   -43194.108   -1854.2882     3260.376    468.02521    72.710581    62.969211    36.276326   -5992.7595   -307784.59 
    7340    2018.8743    166098.51    72.711506    72.711507    36.276788          120   -54452.525   -45169.023   -121567.03    974.69491   -1142.2573    1139.5018    72.711506    62.970012    36.276788   -73729.526   -307658.45 
    7350    2059.2824    166104.84     72.71243    72.712431    36.277248          120    91059.437    99249.679    39800.015    2434.8755   -3055.0757    3083.9951     72.71243    62.970812    36.277248    76703.044   -307748.73 
    7360    2043.3046    166111.18    72.713354    72.713355     36.27771          120    97627.394    95039.966    49589.382   -716.25595    952.75912    2622.5158    72.713354    62.971613     36.27771    80752.247   -307712.27 
    7370    2036.4503    166117.51    72.714279     72.71428    36.278171          120   -48658.658   -46696.588   -114166.09   -1049.7677    74.602695   -45.002055    72.714279    62.972414    36.278171   -69840.447   -307697.76 
    7380    2055.1948    166123.84    72.715203    72.715203    36.278632          120    6199.7742    14783.581   -57536.592    3606.4752   -3001.1501    1967.3552    72.715203    62.973213    36.278632   -12184.412   -307739.91 
    7390    2026.3043    166130.17    72.716126    72.716126    36.279092          120    128255.27    130358.85    80933.303    2121.1242   -280.73564    4878.0713    72.716126    62.974013    36.279092    113182.48   -307674.34 
    7400    2069.4782     166136.5    72.717049     72.71705    36.279553          120    24134.629    24986.244   -30689.092   -2129.5843    884.10142     1154.272    72.717049    62.974813    36.279553    6143.9269   -307771.11 
    7410    2014.6303    166142.83    72.717973    72.717974    36.280014          120   -56649.238   -49966.418   -125371.75    1188.9271   -2663.3227   -28.219495    72.717973    62.975613    36.280014   -77329.134   -307649.87 
    7420    2056.9129    166149.15    72.718895    72.718896    36.280474          120    84161.995    86411.477    24844.231    4151.4215    -1120.854    4752.3507    72.718895    62.976411    36.280474    65139.234    -307743.1 
    7430    2033.4376    166155.48    72.719818    72.719818    36.280934          120    106090.05    105514.68    57003.796   -48.325857    1942.2772    3957.3721    72.719818     62.97721    36.280934    89536.175   -307691.59 
    7440    2014.1276     166161.8    72.720741    72.720741    36.281395          120   -44184.806   -36700.683   -105013.07   -2086.7344   -1415.6246   -1574.1147    72.720741     62.97801    36.281395   -61966.186    -307649.9 
    7450    2045.3535    166168.12    72.721663    72.721663    36.281855          120   -2193.8249     1865.104   -71445.215     2236.194    -3001.739    2098.3847    72.721663    62.978808    36.281855   -23924.645   -307719.76 
    7460    1989.9216    166174.44    72.722584    72.722584    36.282314          120    131288.72    126954.05    75870.612    2404.2887    2075.1023    5566.0981    72.722584    62.979606    36.282314    111371.13   -307596.71 
    7470    2047.0508    166180.76    72.723506    72.723507    36.282774          120     37290.84    39672.305   -16586.792   -2117.6275    1606.9462    453.49893    72.723506    62.980404    36.282774    20125.451   -307724.54 
    7480    1982.3594    166187.08    72.724428    72.724429    36.283234          120   -60933.285   -51385.021   -128269.18   -1307.2094   -3957.2268   -1495.7647    72.724428    62.981203    36.283234   -80195.827   -307580.32 
    7490    2036.0918    166193.39    72.725349    72.725349    36.283694          120    76137.233    75412.971    12634.826    2542.6284   -271.36407    3820.7245    72.725349       62.982    36.283694    54728.343   -307700.41 
    7500    2004.4089    166199.71    72.726269     72.72627    36.284153          120    116867.32    111274.34    62815.739   -175.51881     4284.933    3730.9655    72.726269    62.982798    36.284153    96985.799   -307629.04 
    7510    2020.1541    166206.02    72.727191    72.727192    36.284613          120   -35075.143    -28895.11   -98318.439    -2845.566   -1509.6687   -1208.7486    72.727191    62.983596    36.284613   -54096.231    -307663.8 
    7520    2035.9175    166212.33    72.728111    72.728112    36.285072          120    -17406.02   -7742.2553   -81617.663    1460.4549   -3810.6843   -185.08936    72.728111    62.984393    36.285072   -35588.646   -307699.46 
    7530      2005.25    166218.64    72.729031    72.729031    36.285531          120    125492.98    121424.52    70658.703    1017.2982    3764.0876    3471.7705    72.729031    62.985189    36.285531    105858.73   -307629.48 
    7540    2078.5342    166224.94    72.729951    72.729951     36.28599          120    52664.248    48323.572   -9407.4173   -2956.5337    3507.2569    1882.6549    72.729951    62.985986     36.28599    30526.801   -307792.25 
    7550    1994.1441    166231.25    72.730871    72.730871    36.286449          120   -66375.027   -54892.206   -129566.92    568.33074   -4152.9585   -1732.1981    72.730871    62.986782    36.286449   -83611.384   -307604.72 
    7560    2084.4951    166237.55    72.731789    72.731789    36.286907          120    55608.009    62144.232    3131.0984    2311.6535   -769.17568    762.83695    72.731789    62.987577    36.286907    40294.446   -307805.31 
    7570    2020.2502    166243.84    72.732706    72.732707    36.287365          120    122253.88    113903.39    63610.186   -2482.1027    5842.1204    1621.5651    72.732706    62.988372    36.287365    99922.485   -307661.59 
    7580    2058.8012    166250.14    72.733625    72.733625    36.287823          120   -25643.052   -22495.882   -90190.837   -1396.5694    1014.2856   -639.31785    72.733625    62.989167    36.287823   -46109.924   -307748.86 
    7590    2039.9802    166256.42    72.734542    72.734542     36.28828          120   -36338.568   -21634.721   -87991.981    3273.2621   -3874.0508   -567.23936    72.734542    62.989961     36.28828    -48655.09   -307707.04 
    7600    2034.4687     166262.7    72.735457    72.735458    36.288737          120    117597.06    114694.45    65412.066   -442.34758    2615.4505   -71.797286    72.735457    62.990754    36.288737    99234.526   -307694.88 
    7610    2059.7742    166268.98    72.736373    72.736374    36.289194          120    63631.198    58754.296    1196.4642   -3382.0903    4805.1799   -919.83608    72.736373    62.991548    36.289194    41193.986   -307752.23 
    7620    2004.9124    166275.26    72.737289    72.737289    36.289651          120   -69628.493   -56642.121   -127005.93      799.781   -1290.9934    106.91952    72.737289    62.992341    36.289651   -84425.516    -307630.6 
    7630    2070.3275    166281.53    72.738203    72.738203    36.290107          120    41315.213    48092.363   -7252.3714     1007.757   -1019.3763    655.41255    72.738203    62.993132    36.290107    27385.068   -307777.15 
    7640    1999.3797    166287.79    72.739116    72.739116    36.290562          120    123754.94    118186.71    70081.697   -3158.8593    3352.1539   -1965.5121    72.739116    62.993923    36.290562    104007.78   -307619.15 
    7650    2064.9373    166294.06     72.74003     72.74003    36.291018          120   -17540.186   -12032.068   -79791.273    -2751.256    1962.1585   -316.05241     72.74003    62.994714    36.291018   -36454.509   -307765.35 
    7660    2016.8303    166300.32    72.740942    72.740943    36.291474          120   -44101.138    -31010.92   -99133.741   -836.11843   -1095.6844     2249.297    72.740942    62.995504    36.291474   -58081.933   -307658.65 
    7670    2042.6437    166306.57    72.741853    72.741853    36.291928          120    107007.07    108133.05    60899.148   -2405.0348    259.81253   -1113.5011    72.741853    62.996293    36.291928     92013.09   -307715.93 
    7680    2053.7619    166312.81    72.742764    72.742765    36.292382          120    69832.333    69604.587    13924.507   -3419.7981    1357.6535   -1938.4444    72.742764    62.997082    36.292382    51120.476    -307740.2 
    7690    2014.1044    166319.06    72.743675    72.743675    36.292837          120   -63760.687   -53514.385   -129446.48   -3702.1595    69.335197    1858.5149    72.743675    62.997871    36.292837   -82240.518   -307653.67 
    7700    2055.2293    166325.29    72.744584    72.744584     36.29329          120    27243.529    36740.892   -23299.944   -4012.4338    20.603369    763.54948    72.744584    62.998658     36.29329    13561.493   -307745.64 
    7710    2008.9421    166331.52    72.745492    72.745492    36.293743          120     120578.6    121616.27    77029.233   -2687.8229   -858.45882   -2372.5925    72.745492    62.999444    36.293743    106408.03   -307642.72 
    7720    2036.6629    166337.76      72.7464    72.746401    36.294197          120   -4764.4575   -2456.2604   -67086.764   -2411.6606    -858.1009    -34.41939      72.7464    63.000231    36.294197   -24769.161   -307706.57 
    7730    1999.1838    166343.98    72.747307    72.747308    36.294649          120   -47141.327   -37183.803   -112996.91   -5551.7798      1708.38    1590.6785    72.747307    63.001017    36.294649   -65774.014   -307624.52 
    7740    2017.4642    166350.19    72.748213    72.748213    36.295101          120    95553.811    103724.39    52741.309   -4258.3347   -41.332671   -1054.8251    72.748213    63.001801    36.295101    84006.502   -307665.77 
    7750    2012.8982     166356.4    72.749119    72.749119    36.295553          120    78630.054    78489.479    33873.392    1.5672265   -3080.1112   -1844.5452    72.749119    63.002585    36.295553    63664.308   -307656.81 
    7760     1988.815    166362.62    72.750024    72.750025    36.296005          120   -55101.961   -53100.573   -125920.37   -3126.5694   -222.49501    1220.6919    72.750024     63.00337    36.296005   -78040.967   -307604.07 
    7770    2031.2081    166368.82    72.750928    72.750928    36.296456          120     17148.08    29025.906   -41232.567   -6442.6645    3013.7119    1095.6014    72.750928    63.004152    36.296456    1647.1394   -307698.72 
    7780     1981.618    166375.01    72.751831    72.751831    36.296906          120    119159.94    124145.81    84749.688   -1112.1222   -1232.0878   -1476.8192    72.751831    63.004934    36.296906    109351.81   -307588.37 
    7790    2035.5433    166381.21    72.752734    72.752735    36.297357          120    6974.5336    3579.9276    -48102.36    1156.8896   -3931.9978    47.919276    72.752734    63.005717    36.297357   -12515.966   -307708.38 
    7800    1997.4119     166387.4    72.753637    72.753637    36.297807          120   -49384.656   -42790.209   -122597.86   -5345.0458     1868.576    1756.5874    72.753637    63.006498    36.297807   -71590.908   -307624.05 
    7810    2018.4698    166393.58    72.754537    72.754538    36.298256          120    86200.302    98015.531    43745.789   -4604.3533    3650.9036    1304.3446    72.754537    63.007278    36.298256    75987.208   -307671.01 
    7820    2036.1659    166399.76    72.755438    72.755439    36.298706          120    85847.232    85705.628    50786.125    1888.8056   -2596.7635    304.42143    72.755438    63.008058    36.298706    74112.995   -307709.77 
    7830    1999.6794    166405.94    72.756339    72.756339    36.299155          120   -48650.585   -50065.147   -117492.46   -425.11871   -3006.7873     -11.7049    72.756339    63.008838    36.299155   -72069.397   -307629.44 
    7840    2052.2053    166412.11    72.757238    72.757239    36.299604          120    7403.8671    19861.546   -53651.816   -6041.6468    4367.7824    1928.9525    72.757238    63.009617    36.299604   -8795.4675   -307747.12 
    7850    1999.4325    166418.27    72.758136    72.758137    36.300052          120     117031.5    124854.85    86941.172   -1752.8709    2950.1948    3030.6152    72.758136    63.010395    36.300052    109609.17   -307628.86 
    7860     2062.147    166424.44    72.759035    72.759036      36.3005          120    18143.872    16124.601    -29853.82    2840.3566   -4206.9439   -440.19643    72.759035    63.011173      36.3005    1471.5509   -307769.76 
    7870    1999.0413     166430.6    72.759933    72.759934    36.300948          120   -53860.191   -47707.744   -123877.84   -2293.9234   -944.80216     -523.199    72.759933    63.011951    36.300948   -75148.591   -307629.84 
    7880    2056.8226    166436.76    72.760829     72.76083    36.301396          120    77322.274    89672.119    33847.848   -4519.3778    5364.8905     5227.013    72.760829    63.012727    36.301396    66947.414   -307758.29 
    7890    2029.5681    166442.91    72.761726    72.761726    36.301843          120    93373.333    98565.542    59987.929    572.19341    903.26344    2608.6124    72.761726    63.013504    36.301843    83975.601   -307697.92 
    7900    2025.1883    166449.06    72.762623    72.762623     36.30229          120   -45317.419   -42303.771   -105011.34    3232.4912   -3345.7925   -2239.9794    72.762623     63.01428     36.30229   -64210.844   -307688.85 
    7910    2060.8422     166455.2    72.763518    72.763518    36.302737          120   -3608.5132    5971.0205   -63841.234   -1527.0045    1804.6948    3953.5839    72.763518    63.015056    36.302737   -20492.909   -307768.31 
    7920    2003.4872    166461.34    72.764412    72.764413    36.303183          120    117668.99    127303.28    79990.419   -2991.2999    4435.6407    6033.8456    72.764412     63.01583    36.303183     108320.9   -307641.21 
    7930    2077.0467    166467.48    72.765307    72.765307    36.303629          120     26748.74     32754.29    -18672.27    2991.4358    1293.0583   -879.60153    72.765307    63.016605    36.303629    13610.254   -307805.85 
    7940    1998.2683    166473.62    72.766201    72.766201    36.304075          120   -60197.675   -52908.647   -125469.54    4729.5851   -1079.1317    594.75604    72.766201    63.017379    36.304075   -79525.288   -307631.08 
    7950    2065.6937    166479.74    72.767093    72.767094    36.304521          120    70310.815    78730.706    18454.623   -1539.0283    1802.6004    6633.5924    72.767093    63.018152    36.304521    55832.048   -307782.68 
    7960    2016.5144    166485.86    72.767985    72.767986    36.304966          120    101111.75    108561.93    60536.596   -1456.9865    4923.9824    2064.8124    72.767985    63.018924    36.304966    90070.092   -307673.21 
    7970    2041.3255    166491.99    72.768878    72.768878    36.305411          120   -39592.742   -31474.842   -99932.972    5819.6684    1591.4469   -1062.5071    72.768878    63.019697    36.305411   -57000.186   -307729.77 
    7980    2029.7447     166498.1    72.769768    72.769769    36.305855          120   -12713.656   -6854.3481   -78404.329    4054.0894   -1659.5008    4321.9036    72.769768    63.020469    36.305855   -32657.444   -307705.52 
    7990    2018.1597    166504.21    72.770658    72.770658    36.306299          120    117064.08    122629.19    73257.922   -2731.0944    2765.5575    3830.1784    72.770658    63.021239    36.306299    104317.06   -307679.42 
    8000    2056.3772    166510.32    72.771548    72.771548    36.306743          120    39152.599    47322.898   -11256.884    1358.4807    4676.7674   -857.91867    72.771548     63.02201    36.306743    25072.871   -307765.64 
    8010    1996.2743    166516.42    72.772437    72.772437    36.307187          120   -58854.157   -53611.391   -131081.48    7517.8608   -1044.9447    2126.7493    72.772437     63.02278    36.307187   -81182.344   -307633.17 
    8020    2065.5731    166522.51    72.773324    72.773325    36.307629          120    61575.278    63265.984    5507.3179    622.86633   -1470.3645    4182.6495    72.773324    63.023548    36.307629    43449.527   -307787.19 
    8030    2014.2311     166528.6    72.774211    72.774212    36.308072          120    109548.39    114488.92    65960.742   -2615.4903      3292.85   -772.98426    72.774211    63.024316    36.308072    96666.018   -307673.32 
    8040     2048.455    166534.69    72.775099    72.775099    36.308515          120   -28329.712   -21630.375   -93362.451    5354.2094    1880.0693    290.55873    72.775099    63.025085    36.308515   -47774.179   -307750.96 
    8050    2034.9276    166540.78    72.775984    72.775985    36.308957          120   -20433.569    -20422.98   -89672.755    5185.6077   -2608.6061    5278.0586    72.775984    63.025852    36.308957   -43509.768    -307721.4 
    8060    2030.5038    166546.85    72.776869    72.776869    36.309398          120    115954.38    116102.33    68183.462   -2505.3639   -145.15724    1000.6819    72.776869    63.026618    36.309398    100080.06   -307712.47 
    8070    2051.2272    166552.92    72.777753    72.777754    36.309839          120    53010.496    57474.091   -397.61052    141.52803    2648.9325   -2245.5795    72.777753    63.027384    36.309839    36695.659   -307759.66 
    8080    2012.9807    166558.99    72.778638    72.778638     36.31028          120   -59427.882   -56204.629   -130047.36    6040.3686    301.49789    4548.2897    72.778638     63.02815     36.31028   -81893.289   -307675.71 
    8090    2051.1922    166565.05     72.77952     72.77952    36.310721          120    50902.797    50877.462   -8244.8607    1228.9003   -1625.2952    4507.8715     72.77952    63.028914    36.310721    31178.466   -307762.31 
    8100    2012.6572     166571.1    72.780402    72.780402     36.31116          120    117128.16    116642.06    68288.056   -2016.6338    426.10066   -3073.5812    72.780402    63.029677     36.31116    100686.09   -307676.94 
    8110    2037.9702    166577.16    72.781283    72.781284      36.3116          120   -20116.174   -16213.374   -82380.237    2117.3401    2737.1938    332.98905    72.781283    63.030441      36.3116   -39569.928   -307734.21 
    8120    2016.5268     166583.2    72.782164    72.782164     36.31204          120    -33095.56   -26821.599   -99905.238    3410.4983    -210.4653    6049.4478    72.782164    63.031203     36.31204   -53274.133   -307688.65 
    8130    2010.3607    166589.23    72.783042    72.783043    36.312478          120    109740.42    108965.72     55919.56   -268.71504   -1323.5483   -615.21513    72.783042    63.031964    36.312478    91541.899   -307675.52 
    8140    2039.9707    166595.27    72.783921    72.783922    36.312916          120    65181.411    62418.641    10596.834   -753.42092    2088.4522   -3324.5802    72.783921    63.032725    36.312916    46065.629   -307742.47 
    8150    1982.2477     166601.3    72.784799      72.7848    36.313354          120   -63346.793    -53607.01   -128169.52    1673.6427     1672.504    3405.2837    72.784799    63.033486    36.313354   -81707.774   -307615.76 
    8160    2040.9663    166607.31    72.785675    72.785676    36.313791          120    34963.707    40783.559   -25643.533    833.86843   -1877.6617    2473.0552    72.785675    63.034244    36.313791    16701.244   -307746.94 
    8170    1991.7185    166613.32     72.78655    72.786551    36.314228          120    121882.35    114179.01    69232.371   -437.43991     603.5648   -3012.7711     72.78655    63.035002    36.314228    101764.58   -307637.56 
    8180    2026.0372    166619.33    72.787425    72.787426    36.314665          120   -10890.088   -7703.1853   -70303.693    657.94032    2039.7658      109.923    72.787425     63.03576    36.314665   -29632.322   -307715.62 
    8190    2007.4721    166625.33    72.788299    72.788299      36.3151          120   -46776.296   -33945.874   -109416.81    291.27213   -1546.6327    3226.3451    72.788299    63.036516      36.3151   -63379.659   -307675.04 
    8200    2012.4929    166631.31     72.78917    72.789171    36.315535          120    101352.55    97486.139    48250.133   -598.10497   -338.23589   -1277.5081     72.78917    63.037271    36.315535    82362.939   -307686.78 
    8210    2035.8849     166637.3    72.790041    72.790042     36.31597          120    76315.797    70249.971    21444.666    559.80247     1312.678   -1539.2674    72.790041    63.038026     36.31597    56003.478   -307739.62 
    8220     1993.254    166643.28    72.790912    72.790912    36.316404          120   -63572.939   -51961.367   -126344.49    890.82622   -335.02393    2409.5181    72.790912     63.03878    36.316404   -80626.266   -307645.31 
    8230    2058.7465    166649.24     72.79178    72.791781    36.316837          120    19696.018    24770.226     -34870.1     -196.998   -70.230266    400.13197     72.79178    63.039531    36.316837    3198.7147    -307792.1 
    8240    1990.8117    166655.19    72.792647    72.792648     36.31727          120    121755.05    113901.02    70767.232   -940.39914    678.70772   -1925.0423    72.792647    63.040282     36.31727     102141.1   -307641.01 
    8250    2065.7277    166661.15    72.793514    72.793515    36.317702          120   -325.97599    3047.0189   -62344.748    45.077116   -39.206299    617.16397    72.793514    63.041033    36.317702   -19874.568   -307808.48 
    8260    2004.5679    166667.09    72.794379     72.79438    36.318134          120   -56060.965    -44859.16   -114981.28    1634.8195    1717.5172    2046.2376    72.794379    63.041782    36.318134   -71967.136   -307673.76 
    8270     2044.375    166673.02    72.795242    72.795243    36.318565          120    89703.643    87967.325    40750.425   -325.83902     1841.028    206.43597    72.795242     63.04253    36.318565    72807.131   -307763.18 
    8280     2041.662    166678.94    72.796105    72.796105    36.318995          120    83940.478    80937.007    26436.508   -2190.5043   -657.87804   -598.31648    72.796105    63.043277    36.318995    63771.331   -307757.75 
    8290    2012.7541    166684.87    72.796967    72.796967    36.319425          120   -58555.269   -48688.753   -123512.66    58.431814    2020.8879    1292.4464    72.796967    63.044023    36.319425   -76918.893   -307695.27 
    8300    2056.2779    166690.77    72.797826    72.797827    36.319854          120    5432.4566    11534.655   -47271.594    1617.0311    5001.6518    2886.0737    72.797826    63.044767    36.319854   -10101.494   -307793.31 
    8310    2003.3597    166696.66    72.798684    72.798685    36.320282          120    119255.31    116236.97     68683.82   -1443.4963    542.22632    879.44273    72.798684     63.04551    36.320282    101392.03   -307675.93 
    8320    2058.9019    166702.55    72.799542    72.799542     36.32071          120    12012.464     16260.86   -53653.362   -3064.2212      288.966   -259.87968    72.799542    63.046253     36.32071   -8460.0128   -307801.92 
    8330    1993.7223    166708.44    72.800398    72.800399    36.321137          120   -60692.307   -49954.905   -122700.99   -247.15822    5775.3351     2972.745    72.800398    63.046995    36.321137   -77782.734      -307658 
    8340    2051.1119     166714.3    72.801252    72.801252    36.321563          120    78911.258    80014.536    30455.374    789.83855    3906.9239    3476.7054    72.801252    63.047734    36.321563    63127.056    -307786.7 
    8350    2009.2713    166720.16    72.802105    72.802105    36.321988          120    92077.467    91987.869    34296.035   -2993.6402    -189.2997    59.792691    72.802105    63.048473    36.321988    72787.124   -307694.91 
    8360    2022.8978    166726.02    72.802957    72.802958    36.322414          120   -51597.726   -39893.894   -119787.33   -4100.5271    2370.0119    1595.0509    72.802957    63.049211    36.322414   -70426.317   -307726.63 
    8370    2032.5047    166731.86    72.803808    72.803808    36.322838          120   -6129.2432    2023.6463   -60885.229    494.86898    5939.5016    4884.8892    72.803808    63.049948    36.322838   -21663.609   -307749.04 
    8380    2002.3557    166737.69    72.804656    72.804657    36.323261          120    118568.43    116636.79    68710.671   -142.46009    2254.0078    1548.1555    72.804656    63.050682    36.323261     101305.3   -307682.85 
    8390     2048.851    166743.52    72.805505    72.805505    36.323685          120    21878.257    29723.367   -40507.551    -4565.893   -29.656833    730.18969    72.805505    63.051417    36.323685    3698.0239   -307787.08 
    8400    1995.9955    166749.34    72.806352    72.806352    36.324107          120   -64232.696   -49477.602   -126860.33   -2837.2542    4749.1429    3660.9275    72.806352    63.052151    36.324107   -80190.211   -307670.74 
    8410    2036.5977    166755.15    72.807197    72.807197    36.324529          120    70670.725    71459.844    19138.642    1267.5902    5042.1575    2547.4912    72.807197    63.052883    36.324529    53756.403    -307762.4 
    8420    2012.5449    166760.95    72.808041    72.808041     36.32495          120     98359.72    100270.59     46656.19    -1465.945    1193.1926    1514.3139    72.808041    63.053614     36.32495    81762.168    -307709.8 
    8430    2014.2656    166766.75    72.808885    72.808885    36.325371          120   -45679.031   -30794.616   -107655.87   -4627.5417    3076.3511    1090.0519    72.808885    63.054344    36.325371   -61376.506   -307715.71 
    8440    2018.7021    166772.53    72.809727    72.809727    36.325791          120   -13796.993   -6384.7214    -72796.65   -1114.8254    6031.4131    837.80467    72.809727    63.055073    36.325791   -30992.788   -307727.12 
    8450    2003.0901     166778.3    72.810567    72.810567     36.32621          120    116521.47    115337.31    67832.075     686.2154     3781.425    2707.5582    72.810567    63.055801     36.32621    99896.951   -307692.63 
    8460    2031.3002    166784.08    72.811407    72.811408    36.326629          120    32577.113    42009.968   -21662.883   -2287.9091    3452.2156    1042.1107    72.811407    63.056529    36.326629    17641.399   -307757.17 
    8470    1988.0736    166789.84    72.812246    72.812247    36.327048          120   -64175.381   -51122.321   -127572.26   -3319.2348    5939.1934   -2281.6752    72.812246    63.057256    36.327048   -80956.654    -307662.3 
    8480     2030.936     166795.6    72.813083    72.813084    36.327466          120    60861.461    62291.634    6847.2703   -561.01341    5551.0596    887.29044    72.813083     63.05798    36.327466    43333.455   -307758.44 
    8490    2000.7827    166801.34    72.813919     72.81392    36.327883          120    104951.68    108054.99    56964.294     -16.6847    4451.7792    2202.6843    72.813919    63.058705    36.327883    89990.321   -307692.69 
    8500    2007.7122    166807.09    72.814756    72.814756      36.3283          120   -37063.362   -24130.539   -96875.226   -2272.3633    5464.2547   -2755.1847    72.814756    63.059429      36.3283   -52689.709    -307709.2 
    8510     2022.353    166812.82     72.81559    72.815591    36.328716          120   -23324.555    -15904.53   -84416.461    -2729.186    6028.8595   -2832.4849     72.81559    63.060151    36.328716   -41215.182   -307743.31 
    8520       1988.5    166818.55    72.816423    72.816423    36.329132          120    112263.25    112760.51    63562.143   -1053.5083    4836.6153    1606.5539    72.816423    63.060872    36.329132      96195.3   -307668.96 
    8530    2041.2725    166824.27    72.817255    72.817256    36.329547          120    43915.248     52022.01   -8077.1628   -869.13797    4365.6266   -649.03694    72.817255    63.061593    36.329547    29286.699   -307787.51 
    8540    1980.1524    166829.98    72.818087    72.818087    36.329962          120   -65783.391   -53374.463   -128903.34   -2513.0076    5336.0731   -4140.4095    72.818087    63.062314    36.329962   -82687.064    -307652.7 
    8550    2037.4002    166835.69    72.818916    72.818917    36.330376          120    49378.284    52341.971   -5299.7062   -2500.2934    5128.7962   -1125.0515    72.818916    63.063032    36.330376    32140.183   -307781.58 
    8560    1996.2619    166841.38    72.819745    72.819745    36.330789          120    109584.63    111369.28    61146.429   -2005.6641    2981.7855    970.99121    72.819745     63.06375    36.330789    94033.446   -307690.39 
    8570    2023.6754    166847.07    72.820573    72.820574    36.331203          120   -28751.785   -15419.487   -88008.316   -2010.3163    3333.1769   -2100.7877    72.820573    63.064467    36.331203   -44059.863   -307752.89 
    8580    2010.8581    166852.76      72.8214      72.8214    36.331615          120   -33477.497   -24514.493   -94851.817   -2107.6048    5574.5904   -3868.2526      72.8214    63.065183    36.331615   -50947.936   -307725.87 
    8590    2001.2501    166858.42    72.822224    72.822225    36.332026          120    106989.31    104380.65     57127.57   -2348.7051    2763.7098    850.31098    72.822224    63.065897    36.332026    89499.177   -307704.84 
    8600    2037.4523    166864.09    72.823049    72.823049    36.332438          120    54830.097    63046.277    1623.1733   -2579.7078    1636.7728    1630.8924    72.823049    63.066611    36.332438    39833.182   -307787.38 
    8610    1970.1177    166869.75    72.823873    72.823873    36.332849          120   -65760.732   -50698.027   -129657.69   -1937.2611    4897.3974   -3615.7112    72.823873    63.067324    36.332849   -82038.817   -307639.35 
    8620    2044.0962     166875.4    72.824694    72.824694    36.333258          120    37282.538     37389.38   -16684.948   -1478.7052    3844.9379   -2441.0691    72.824694    63.068036    36.333258     19328.99   -307805.24 
    8630     1972.651    166881.04    72.825514    72.825515    36.333668          120    112855.18    112667.97    65382.792   -2347.2484     1199.149    3559.9737    72.825514    63.068746    36.333668    96968.647   -307647.21 
    8640    2027.5399    166886.68    72.826334    72.826335    36.334077          120   -18525.874   -4403.7511   -77806.127   -1695.4837     2870.943    874.15831    72.826334    63.069456    36.334077   -33578.584   -307771.34 
    8650    1987.9626     166892.3    72.827153    72.827153    36.334485          120   -43796.409   -35038.084   -103301.37   -1230.7933    4190.8726   -4964.2828    72.827153    63.070165    36.334485   -60711.953   -307684.38 
    8660    2007.3255    166897.91    72.827969    72.827969    36.334892          120    98401.664    95549.579    53036.722    -2563.231    1721.5964    945.81813    72.827969    63.070872    36.334892    82329.322   -307728.65 
    8670     2013.542    166903.52    72.828785    72.828785    36.335299          120    64463.807    69696.161    14571.562   -1498.8212    1152.2994    4754.0808    72.828785    63.071578    36.335299    49577.177    -307743.4 
    8680    1983.9339    166909.13      72.8296      72.8296    36.335706          120   -63951.537   -51206.003   -126578.59   -65.748343     3019.712   -1342.0749      72.8296    63.072284    36.335706    -80578.71   -307678.89 
    8690    2026.3277    166914.71    72.830412    72.830413    36.336111          120     22225.31     25373.44   -28837.305   -3129.2481    2598.4823   -3458.2341    72.830412    63.072988    36.336111    6253.8149   -307775.37 
    8700    1973.3383    166920.29    72.831224    72.831224    36.336516          120    112215.47    111211.09     71887.38   -3311.7479    1471.3196    2764.8858    72.831224    63.073691    36.336516    98437.982   -307658.16 
    8710    2028.6767    166925.87    72.832035    72.832035    36.336921          120   -7699.4376   -353.41026   -63692.286     987.9414    1002.5392    4038.3983    72.832035    63.074393    36.336921   -23915.045    -307782.7 
    8720    1972.3564    166931.44    72.832844    72.832845    36.337325          120   -50430.742   -41360.081   -113436.66   -875.86217     1736.884   -2402.2341    72.832844    63.075094    36.337325   -68409.159   -307659.07 
    8730    2011.3736    166936.98    72.833651    72.833652    36.337727          120    86828.528    87927.078    45744.448   -5005.1803     2598.413    -2605.304    72.833651    63.075793    36.337727    73500.018   -307746.68 
    8740    1999.8191    166942.53    72.834458    72.834459     36.33813          120    71605.655    72524.193    31225.459   -1217.8633    739.40061    3436.6649    72.834458    63.076492     36.33813    58451.769   -307721.67 
    8750    1985.3556    166948.07    72.835264    72.835264    36.338532          120   -57907.183   -48997.817   -123911.59    2040.0477   -439.11048    3203.5325    72.835264    63.077189    36.338532   -76938.862   -307691.55 
    8760    2015.6095     166953.6    72.836067    72.836068    36.338933          120    10116.173    16307.781   -47397.668    -3261.772    1202.1652   -3506.8325    72.836067    63.077885    36.338933   -6991.2381    -307759.2 
    8770    1986.6467    166959.11    72.836869     72.83687    36.339333          120    109790.48    108810.35    76609.011   -4120.4699    1925.9161   -1801.7938    72.836869     63.07858    36.339333    98403.281   -307695.31 
    8780    2020.2366    166964.62    72.837671    72.837671    36.339733          120    1835.5777    6939.8882   -50855.079    1551.6726   -454.74962    4405.5187    72.837671    63.079274    36.339733   -14026.538    -307771.6 
    8790    1990.4766    166970.12     72.83847    72.838471    36.340132          120   -54516.025    -44814.44   -127671.72    574.42116   -1521.4967    1499.9026     72.83847    63.079966    36.340132   -75667.396   -307706.18 
    8800    2016.3496    166975.61    72.839268    72.839268    36.340529          120    78281.561    77853.431    31804.348   -4590.0905    1470.7551   -4359.4492    72.839268    63.080657    36.340529    62646.447   -307765.03 
    8810    2007.5729    166981.08    72.840064    72.840065    36.340927          120    78789.349    78085.782    40396.823   -1563.2924    1799.1182   -750.34352    72.840064    63.081346    36.340927    65757.318   -307746.69 
    8820    1998.1912    166986.55     72.84086     72.84086    36.341324          120   -54726.766   -44520.099   -123413.64    2351.8632   -1302.4102    3613.8151     72.84086    63.082035    36.341324   -74220.167   -307727.02 
    8830    2022.8203    166992.01    72.841653    72.841653    36.341719          120    1343.7754    4186.8951   -65794.658   -2116.6624   -828.53879   -959.06108    72.841653    63.082722    36.341719   -20087.996   -307783.54 
    8840    1985.7524    166997.45    72.842444    72.842444    36.342114          120    110948.41    105260.73    70144.867   -4028.2711    2638.0681   -4291.3839    72.842444    63.083407    36.342114    95451.334   -307701.92 
    8850    2033.5708    167002.89    72.843234    72.843235    36.342508          120    10681.587    16564.678   -42037.373    458.37521     1370.696   -584.32114    72.843234    63.084092    36.342508   -4930.3691   -307809.13 
    8860    1986.4553    167008.31    72.844023    72.844024    36.342902          120   -59042.869   -51130.705    -133749.2    1322.1446   -1724.6262    2412.8116    72.844023    63.084775    36.342902    -81307.59   -307705.83 
    8870    2019.9301    167013.72    72.844809    72.844809    36.343294          120     71206.14    66405.386    14938.453   -3097.8438    1505.6219   -1784.5784    72.844809    63.085456    36.343294    50849.993   -307781.24 
    8880    2017.0765    167019.12    72.845594    72.845594    36.343686          120    85911.329    86204.318    43100.104   -3566.3394    3570.6878   -3959.7813    72.845594    63.086135    36.343686    71738.584   -307775.22 
    8890    1998.5698    167024.51    72.846378    72.846378    36.344077          120   -49146.964   -41402.629   -114785.76    1746.3793    23.586824    550.78302    72.846378    63.086814    36.344077   -68445.118   -307735.42 
    8900    2034.0352    167029.88    72.847159     72.84716    36.344467          120   -8729.5828   -8207.7782   -79125.422     1241.189   -454.55106    1857.0573    72.847159    63.087491    36.344467   -32020.928   -307815.39 
    8910    1992.8638    167035.24    72.847938    72.847939    36.344855          120    107761.42    106303.36    62182.362   -5031.2474    4088.1699    -2574.643    72.847938    63.088166    36.344855    92082.381   -307724.11 
    8920    2043.8053     167040.6    72.848717    72.848717    36.345244          120    23966.579    26716.652   -28501.797   -1797.4181    3449.1572    -2662.575    72.848717     63.08884    36.345244    7393.8112   -307839.38 
    8930    1981.3703    167045.94    72.849494    72.849494    36.345631          120   -61295.471   -58013.147   -133603.23     4238.245   -626.30075    1469.7113    72.849494    63.089513    36.345631   -84303.951    -307701.6 
    8940    2039.4808    167051.27    72.850268    72.850269    36.346018          120    58882.045    60453.652    3641.8322   -1343.9101    2085.0348    355.61692    72.850268    63.090183    36.346018     40992.51    -307832.1 
    8950    1994.4492    167056.59    72.851041    72.851042    36.346403          120    95151.998    95337.094     48771.73   -4671.2605    6150.4374   -2555.4141    72.851041    63.090853    36.346403    79753.607   -307733.19 
    8960    2015.2196     167061.9    72.851813    72.851814    36.346789          120   -37781.859   -36799.845   -104221.33    2289.3704    3344.3779   -1000.1769    72.851813    63.091522    36.346789   -59601.011   -307780.64 
    8970    2018.9642     167067.2    72.852583    72.852584    36.347173          120    -21970.37   -17384.995   -85509.261    3618.5506   -183.87278    1533.0773    72.852583    63.092188    36.347173   -41621.542   -307789.99 
    8980    1990.8777    167072.48    72.853351    72.853352    36.347556          120    104795.26    107310.67     58551.13    -3279.459    4292.1635   -172.05891    72.853351    63.092853    36.347556     90219.02   -307728.36 
    8990    2044.8852    167077.76    72.854118    72.854119    36.347939          120    39082.399    37872.677   -19488.653    -1435.047    7440.5889   -1427.1899    72.854118    63.093518    36.347939    19155.475   -307849.62 
    9000    1978.5747    167083.03    72.854884    72.854885    36.348321          120    -63664.53   -60384.488   -131903.27    3972.5172    1958.0166    820.24539    72.854884    63.094181    36.348321   -85317.428   -307703.66 
    9010    2042.1426    167088.28    72.855647    72.855648    36.348702          120    45892.747    51366.245   -5331.8168    529.66164   -280.13541    2027.2461    72.855647    63.094842    36.348702    30642.392   -307846.75 
    9020    1990.1707    167093.52    72.856409     72.85641    36.349082          120    101647.92    100826.02    51287.093   -2208.4756    6005.2214   -392.82742    72.856409    63.095502    36.349082    84587.009   -307731.27 
    9030     2024.166    167098.76    72.857171    72.857171    36.349461          120   -29693.503   -27696.835   -95204.171    1242.8548    5801.2494     423.8957    72.857171    63.096161    36.349461   -50864.836   -307809.38 
    9040    1994.2892    167103.98     72.85793     72.85793     36.34984          120   -33309.195    -27302.05   -93564.982    2426.0769   -1404.5099    3640.1033     72.85793    63.096818     36.34984   -51392.075   -307744.48 
    9050    2003.1736    167109.19    72.858686    72.858687    36.350218          120    101019.93    101204.13    52506.416   -566.79025    1528.7044    268.60826    72.858686    63.097474    36.350218    84910.159   -307765.09 
    9060     2011.788    167114.39    72.859442    72.859443    36.350595          120    47750.201    49620.437   -8477.7713   -223.91902    6164.4528   -243.79198    72.859442    63.098129    36.350595    29630.955   -307786.39 
    9070    1973.5598    167119.58    72.860197    72.860198    36.350972          120   -65348.942   -58594.778   -130456.07    2455.1397    1774.0068    4112.2296    72.860197    63.098782    36.350972   -84799.931    -307702.8 
    9080    2020.1931    167124.76    72.860949     72.86095    36.351347          120    35767.604    38346.761     -18833.9    1305.6018   -617.89366     1309.364    72.860949    63.099434    36.351347    18426.821   -307807.56 
    9090    1971.9762    167129.92      72.8617      72.8617    36.351721          120    104451.05    106131.72    56495.711   -490.94848    3170.7391   -2392.5543      72.8617    63.100084    36.351721     89026.16   -307701.39 
    9100    2010.2584    167135.09     72.86245    72.862451    36.352096          120    -23162.24   -16021.794   -84715.859    2256.0863    4148.3488    2467.3973     72.86245    63.100733    36.352096   -41299.964   -307788.09 
    9110    1985.0584    167140.23    72.863198    72.863199    36.352469          120    -40699.16   -34751.322   -104243.45    2968.5635    1323.8302    3761.1586    72.863198    63.101381    36.352469   -59897.979    -307733.2 
    9120     1995.508    167145.36    72.863944    72.863944    36.352841          120    93643.083     96703.19    47098.191   -379.22908    1278.3649   -2457.6772    72.863944    63.102027    36.352841    79148.155   -307757.41 
    9130    2007.5855    167150.49    72.864689    72.864689    36.353212          120    55359.484    61690.646    4272.8215     1305.843    3312.5493   -1677.9454    72.864689    63.102672    36.353212    40440.984      -307785 
    9140    1982.8491    167155.61    72.865433    72.865433    36.353584          120   -62634.577   -55337.223   -129538.91    3490.0767      2978.43    3541.3769    72.865433    63.103316    36.353584   -82503.571    -307731.4 
    9150     2012.465    167160.71    72.866174    72.866174    36.353953          120    24188.951     28692.35   -30591.261    258.01343    2271.5222    1209.7805    72.866174    63.103958    36.353953    7430.0131   -307798.73 
    9160    1986.0445     167165.8    72.866914    72.866914    36.354322          120    104989.21    109836.96    62007.231   -78.967424    2494.5507   -3070.4117    72.866914    63.104599    36.354322    92277.802   -307740.15 
    9170    2011.0175    167170.89    72.867653    72.867654    36.354691          120   -12614.532   -5782.3403   -73268.853    2609.2352     3152.134   -456.70538    72.867653    63.105239    36.354691   -30555.242   -307797.28 
    9180    1986.3554    167175.97     72.86839    72.868391    36.355059          120   -46827.235   -40144.397   -111453.43    1388.0672    3354.6883    2985.0972     72.86839    63.105878    36.355059   -66141.686   -307744.35 
    9190    1993.5214    167181.03    72.869125    72.869126    36.355426          120    86097.374    88832.549    40401.133    -742.5741    3060.8493   -126.34293    72.869125    63.106514    36.355426    71777.019   -307760.93 
    9200    2004.4838    167186.08     72.86986     72.86986    36.355792          120    66891.121    70536.506      16346.3    1117.9468    3114.1921   -2842.5006     72.86986     63.10715    36.355792    51257.976    -307786.9 
    9210    1964.0463    167191.13    72.870593    72.870594    36.356158          120   -59305.022   -50622.877   -126769.85    1987.0604    3217.4436    1527.9948    72.870593    63.107786    36.356158   -78899.249   -307698.67 
    9220    2011.8861    167196.16    72.871324    72.871325    36.356523          120    13700.748    17572.419    -43152.48   -648.21193    3257.6995    2766.9043    72.871324    63.108419    36.356523   -3959.7709   -307806.27 
    9230     1964.163    167201.18    72.872054    72.872054    36.356887          120    109622.35    108380.75    63424.016   -710.67608    2586.1532    -2373.252    72.872054     63.10905    36.356887     93809.04   -307701.13 
    9240    2006.8545     167206.2    72.872783    72.872783    36.357251          120   -734.37713     4264.529   -62555.799    1553.8868    2720.8055   -167.60013    72.872783    63.109682    36.357251   -19675.216   -307797.59 
    9250    1976.0687    167211.21     72.87351    72.873511    36.357614          120   -53422.451   -45371.961   -119887.86    521.32687    2929.5564    4123.6419     72.87351    63.110312    36.357614    -72894.09   -307729.73 
    9260    1993.3427     167216.2    72.874235    72.874235    36.357975          120    81463.744    79827.517    29766.861   -2173.3027    1634.1878    -765.1499    72.874235    63.110939    36.357975    63686.041   -307769.28 
    9270    1999.3303    167221.18    72.874959    72.874959    36.358336          120    78844.687    76075.489    24568.155     -570.371    1437.7526   -2089.4352    72.874959    63.111566    36.358336    59829.443   -307783.27 
    9280     1973.489    167226.16    72.875682    72.875683    36.358697          120   -54922.633   -47844.309   -122730.78    1547.6437    2204.8232    4324.2928    72.875682    63.112193    36.358697   -75165.909   -307726.74 
    9290     2014.542    167231.12    72.876403    72.876403    36.359057          120    3898.5538    8300.2626   -56393.622    -1056.083    588.29714    2165.4378    72.876403    63.112817    36.359057   -14731.602   -307819.97 
    9300    1963.0646    167236.07    72.877122    72.877122    36.359415          120    112331.77    106208.85    60930.949   -3146.0853   -27.586217   -3744.6601    72.877122     63.11344    36.359415    93157.188   -307705.39 
    9310    2027.6442    167241.02    72.877841    72.877841    36.359774          120    12181.144    11843.424   -50851.865   -556.98806    967.41207    1833.8234    72.877841    63.114062    36.359774   -8942.4322   -307849.81 
    9320    1963.3684    167245.95    72.878558    72.878558    36.360132          120   -57789.512   -49602.172   -124748.02    1446.9774    581.21646    5722.6925    72.878558    63.114683    36.360132   -77379.902   -307708.19 
    9330    2015.4714    167250.87    72.879272    72.879273    36.360488          120    72777.831    71324.983    19247.158   -2654.5454   -538.52227    -2253.241    72.879272    63.115302    36.360488    54449.991   -307824.62 
    9340    1990.6846    167255.79    72.879986    72.879986    36.360844          120    86378.055    82152.087    33063.051   -4009.1367   -214.87733   -2602.1465    72.879986     63.11592    36.360844    67197.731   -307770.32 
    9350    1985.1321     167260.7    72.880699    72.880699      36.3612          120   -47604.199   -43042.547   -114819.44    835.11374     1090.621    5923.0851    72.880699    63.116537      36.3612    -68488.73    -307760.2 
    9360    2004.2891    167265.59    72.881409     72.88141    36.361555          120   -6608.1875   -2798.1103   -69131.873    446.22141    343.34215    2765.0243    72.881409    63.117153    36.361555    -26179.39    -307803.8 
    9370    1970.5876    167270.47    72.882118    72.882119    36.361908          120    107849.74    105555.22    61834.811   -5423.0406   -740.61952   -4206.5542    72.882118    63.117766    36.361908    91746.593   -307729.46 
    9380    2013.5505    167275.35    72.882826    72.882827    36.362262          120    21108.178     22497.27   -35117.092   -2669.0526    758.82961    1439.4632    72.882826     63.11838    36.362262    2829.4518   -307826.76 
    9390    1961.8302    167280.21    72.883533    72.883534    36.362614          120   -58395.995   -54430.186   -129541.87    2409.9492    1232.1767    6691.8343    72.883533    63.118992    36.362614   -80789.352   -307712.12 
    9400    2015.8687    167285.06    72.884238    72.884238    36.362966          120    61613.837    61928.755    10222.337   -3349.8836   -989.80683   -925.29226    72.884238    63.119602    36.362966     44588.31   -307833.62 
    9410    1973.8843    167289.91    72.884941    72.884942    36.363317          120    88362.302    90265.935    45622.993   -5685.5805    179.22987   -2648.1416    72.884941    63.120211    36.363317     74750.41   -307741.11 
    9420    2000.8589    167294.75    72.885644    72.885645    36.363667          120    -39595.33   -36082.832   -108146.67    431.16375    2083.0682    5082.9705    72.885644     63.12082    36.363667   -61274.945   -307802.58 
    9430    1989.4133    167299.57    72.886345    72.886345    36.364017          120   -15216.038   -13802.739   -80374.443   -13.189114   -667.29922    4121.5273    72.886345    63.121427    36.364017   -36464.407   -307778.48 
    9440    1979.9891    167304.38    72.887044    72.887044    36.364366          120    102385.98    103947.97    63020.026   -5561.2464   -1476.2218   -2237.9146    72.887044    63.122032    36.364366    89784.658   -307758.32 
    9450    2008.4889    167309.19    72.887742    72.887743    36.364714          120    30551.737    34734.819   -23338.875   -3028.4323    2737.8834    1067.9156    72.887742    63.122637    36.364714     13982.56   -307822.51 
    9460    1966.4289       167314    72.888439     72.88844    36.365062          120   -59076.576   -55173.239   -130268.92    1037.4144    1530.4889    5683.6434    72.888439    63.123241    36.365062   -81506.246   -307730.89 
    9470    2004.7211    167318.78    72.889134    72.889135    36.365409          120    51474.453    52005.322    1059.1657   -2752.7962   -3300.1472    1457.4598    72.889134    63.123842    36.365409    34846.314   -307817.24 
    9480     1981.172    167323.56    72.889828    72.889828    36.365755          120    95105.932    96737.378    53043.224   -5472.2712    179.22465   -365.87142    72.889828    63.124443    36.365755    81628.845   -307765.19 
    9490      1991.03    167328.33    72.890521    72.890522    36.366101          120   -33838.581   -26808.526   -95408.912   -67.778169    4710.7837    4115.6829    72.890521    63.125044    36.366101   -52018.673   -307788.73 
    9500    1988.7081     167333.1    72.891213    72.891213    36.366446          120   -24965.494   -22071.515   -86663.697    746.72103   -1106.0895     4794.198    72.891213    63.125643    36.366446   -44566.902    -307784.5 
    9510    1984.6025    167337.85    72.891903    72.891903     36.36679          120    102736.36    99353.279    57324.091   -5705.7346   -3726.5394    1013.7368    72.891903     63.12624     36.36679    86471.243   -307775.44 
    9520     2002.994    167342.59    72.892592    72.892593    36.367134          120    41588.867    46026.093   -8863.3493   -3110.5211    3271.7584    1185.6222    72.892592    63.126837    36.367134    26250.537   -307817.73 
    9530    1972.4903    167347.34     72.89328    72.893281    36.367477          120   -62927.258    -54080.41   -125354.34    2387.8156    3910.5681    4778.8056     72.89328    63.127433    36.367477   -80787.336    -307750.6 
    9540    2011.4991    167352.06    72.893967    72.893967     36.36782          120    44697.471    40303.408   -10959.418   -2877.0484   -3481.7996    3670.8325    72.893967    63.128027     36.36782    24680.487   -307838.39 
    9550    1982.9989    167356.78    72.894652    72.894652    36.368161          120    104586.14    100140.38    56860.631   -6275.1627   -1870.0331   -449.37328    72.894652    63.128621    36.368161    87195.715    -307775.4 
    9560    2005.7574     167361.5    72.895337    72.895337    36.368503          120   -25915.171   -17361.209   -84760.261    408.79958    4801.8335    954.82089    72.895337    63.129214    36.368503    -42678.88   -307826.63 
    9570    2004.6705     167366.2     72.89602    72.896021    36.368844          120   -32640.081    -29621.57   -95210.991    823.62675   -78.977002    4994.8555     72.89602    63.129806    36.368844   -52490.881   -307825.02 
    9580    1991.8611     167370.9    72.896701    72.896702    36.369184          120    100978.45    91690.016    50580.289   -6297.0145   -3907.0559     1756.101    72.896701    63.130396    36.369184    81082.919    -307796.9 
    9590    2030.8884    167375.59    72.897382    72.897383    36.369524          120    55125.519    54596.917    1017.1391    -3934.785    1838.4012   -2905.5864    72.897382    63.130986    36.369524    36913.192   -307884.39 
    9600    1979.7217    167380.27    72.898063    72.898063    36.369863          120   -60093.375   -51393.068   -126443.63     2362.378     1786.061    2325.8436    72.898063    63.131575    36.369863   -79310.023   -307771.88 
    9610    2028.9383    167384.95    72.898741    72.898741    36.370201          120    34198.778    30546.456   -21918.073   -2342.0963    -3512.677    5328.5223    72.898741    63.132162    36.370201     14275.72   -307882.75 
    9620    1984.0476    167389.61    72.899418    72.899418    36.370539          120    108668.37    101828.52    61084.341   -6885.5359    930.53839   -1342.8429    72.899418    63.132748    36.370539    90527.076   -307783.49 
    9630     2012.921    167394.27    72.900095    72.900095    36.370877          120    -11943.85   -7026.0116   -74652.248     254.5247    3271.8749   -3000.6868    72.900095    63.133335    36.370877    -31207.37   -307849.76 
    9640    1982.3698    167398.93     72.90077    72.900771    36.371214          120   -38207.787    -33648.08   -104145.75    1899.8999   -3355.3575    5083.7742     72.90077     63.13392    36.371214   -58667.207   -307783.52 
    9650    1991.2565    167403.57    72.901444    72.901444     36.37155          120    92432.841    88366.999    46662.666   -5765.3881    216.85858    3344.3379    72.901444    63.134503     36.37155    75820.835   -307804.03 
    9660    2001.0859    167408.21    72.902117    72.902118    36.371886          120    65770.498    65095.395    15903.108   -3316.7191     6038.826   -3921.7092    72.902117    63.135086    36.371886        48923   -307827.36 
    9670    1962.1819    167412.84    72.902791    72.902791    36.372222          120   -52254.905   -47969.753   -124631.26    2348.9149   -618.49918    392.33123    72.902791    63.135669    36.372222   -74951.973   -307742.21 
    9680    2014.8246    167417.47    72.903462    72.903462    36.372557          120    22634.692    24985.665   -34665.213   -2719.8906   -2454.5426    5196.7134    72.903462     63.13625    36.372557    4318.3811   -307860.12 
    9690    1955.0368    167422.08    72.904132    72.904132    36.372891          120    106232.39    107655.79    68187.513   -4781.0429    6504.2692   -624.74369    72.904132    63.136831    36.372891    94025.231    -307727.9 
    9700    2007.5349     167426.7    72.904802    72.904803    36.373226          120    1067.7152    519.58979   -61006.822    444.30589    4009.9965   -2786.8485    72.904802    63.137411    36.373226   -19806.506   -307846.18 
    9710    1955.0642    167431.31    72.905471    72.905472    36.373559          120   -41734.411       -38331   -114638.39    -392.8555   -2599.8164    2832.0132    72.905471    63.137991    36.373559   -64901.267    -307730.7 
    9720    1982.1451    167435.91    72.906138    72.906139    36.373892          120    80043.027    88948.368    39079.203   -4646.1627    3484.5971    1550.9904    72.906138    63.138568    36.373892    69356.866   -307792.75 
    9730    1968.7619     167440.5    72.906805    72.906806    36.374225          120      71296.1     72812.48    28850.027   -2017.3393    6439.4343   -1915.6944    72.906805    63.139146    36.374225    57652.869   -307763.84 
    9740     1958.167     167445.1    72.907472    72.907473    36.374558          120   -46159.811    -47595.12   -119855.88    905.37669    294.83132    -62.06016    72.907472    63.139724    36.374558   -71203.605   -307741.53 
    9750    1980.5634    167449.68    72.908137    72.908137    36.374889          120    8809.0037    19380.181   -49714.474   -3615.7785   -179.05675    1584.2865    72.908137    63.140299    36.374889   -7175.0964   -307792.41 
    9760    1955.5319    167454.25      72.9088    72.908801     36.37522          120    101350.19    109780.47    67910.316   -4129.7078    5603.8084   -239.27076      72.9088    63.140874     36.37522    93013.659   -307736.38 
    9770    1999.8188    167458.82    72.909464    72.909465    36.375552          120    9096.6132    6759.1991   -50253.295    358.21585    3204.1364   -928.29628    72.909464    63.141449    36.375552   -11465.828   -307835.42 
    9780    1957.8326    167463.39    72.910127    72.910127    36.375882          120    -48881.91   -43570.311   -122838.41   -957.66291   -1616.2651    -106.7829    72.910127    63.142022    36.375882   -71763.545   -307742.81 
    9790    2003.1147    167467.94    72.910787    72.910787    36.376211          120    67176.772    78171.774    26197.488   -4700.6048    2314.8252    521.58108    72.910787    63.142594    36.376211    57182.011   -307843.58 
    9800     1984.515    167472.48    72.911446    72.911447     36.37654          120     75811.47    78052.592    33050.669   -2323.2414    4787.2261    2.8887844    72.911446    63.143165     36.37654     62304.91   -307802.17 
    9810    1987.8606    167477.02    72.912106    72.912106    36.376869          120   -43905.503   -41708.461   -120465.47    1483.0074    -818.3301   -885.73135    72.912106    63.143736    36.376869   -68693.146    -307810.4 
    9820      2001.32    167481.55    72.912762    72.912763    36.377197          120   -5100.1101    4204.3887   -63693.673   -2072.5962   -842.16872   -325.18253    72.912762    63.144305    36.377197   -21529.798   -307840.58 
    9830    1982.7115    167486.07    72.913418    72.913418    36.377524          120    98323.867    104034.82    65752.269   -4587.8924    4553.2414    668.05449    72.913418    63.144873    36.377524    89370.318   -307799.71 
    9840    2006.6372    167490.58    72.914073    72.914073    36.377851          120    17877.828    20064.078    -46037.42    376.96997    1641.4238    413.67906    72.914073     63.14544    36.377851   -2698.5046   -307853.95 
    9850    1978.4642    167495.09    72.914726    72.914727    36.378177          120   -53369.849   -46441.096   -131138.17    2981.3468   -2478.6984   -1517.8856    72.914726    63.146006    36.378177   -76983.038   -307791.99 
    9860    1999.5012    167499.57    72.915378    72.915378    36.378502          120    57312.177     63824.65    18782.012   -3732.8918     1848.343   -684.43665    72.915378     63.14657    36.378502    46639.613    -307839.8 
    9870    1988.0061    167504.06    72.916028    72.916029    36.378826          120    82907.482    84752.166    40848.658   -4289.6387    3707.1671    1151.7969    72.916028    63.147134    36.378826    69502.769   -307814.73 
    9880    1985.2034    167508.54    72.916678    72.916679    36.379151          120   -37161.623   -33387.613    -117150.1    5216.1746   -888.65106   -917.21877    72.916678    63.147697    36.379151   -62566.447   -307809.62 
    9890    1995.3423       167513    72.917326    72.917327    36.379474          120   -12352.026   -5885.0783    -74488.72    2027.8274   -1379.7529   -2390.9501    72.917326    63.148258    36.379474   -30908.608   -307833.68 
    9900    1972.4317    167517.46    72.917973    72.917973    36.379797          120    97523.292    99932.515    65157.694    -7662.357    2713.6833    342.26127    72.917973    63.148818    36.379797    87537.833   -307783.12 
    9910    2007.6563    167521.91    72.918619     72.91862    36.380119          120    28339.503    28228.177   -29882.535    148.76329    2189.1269    425.14562    72.918619    63.149377    36.380119    8895.0486   -307862.34 
    9920     1962.644    167526.36    72.919264    72.919265    36.380441          120   -53081.404   -48593.649   -133347.37    7420.7055   -1247.7706   -2301.7426    72.919264    63.149936    36.380441   -78340.809   -307763.78 
    9930    1998.3407    167530.79    72.919907    72.919907    36.380762          120    51848.831      56337.8     3728.817   -3204.0277   -349.60768   -1065.7016    72.919907    63.150492    36.380762     37305.15   -307843.81 
    9940    1980.2692    167535.21    72.920549    72.920549    36.381082          120    89183.146    87709.676    51563.629   -6007.0832    2627.2764    1178.8029    72.920549    63.151048    36.381082     76152.15   -307803.77 
    9950    1975.8777    167539.64    72.921191    72.921191    36.381402          120   -31094.599   -29808.195   -102354.51    4023.4208      1205.81   -839.21203    72.921191    63.151604    36.381402     -54419.1   -307795.24 
    9960    1989.8706    167544.05     72.92183    72.921831    36.381721          120   -18690.151   -11538.861   -90109.129    4060.6208   -1469.2142   -2894.6854     72.92183    63.152158    36.381721   -40112.714   -307826.97 
    9970    1963.5766    167548.44    72.922468    72.922469     36.38204          120    97458.762    97064.287    57320.088   -4466.8891    152.17005    1042.8265    72.922468    63.152711     36.38204    83947.712   -307768.87 
    9980    2001.4939    167552.84    72.923106    72.923107    36.382358          120    37163.462    35066.175   -13015.435   -3049.2147     2172.047    1358.6846    72.923106    63.153263    36.382358    19738.067   -307854.27 
    9990    1953.0732    167557.23    72.923743    72.923744    36.382676          120   -57764.787   -48892.563   -133307.86    3452.5273   -52.465258   -3507.6456    72.923743    63.153815    36.382676   -79988.403   -307747.17 
   10000    2004.2149    167561.61    72.924378    72.924378    36.382992          120    44403.579    48818.681   -12751.422    840.26816   -820.65321   -941.00396    72.924378    63.154364    36.382992    26823.613    -307861.9 
Loop time of 4216.61 on 1 procs for 10000 steps with 16384 atoms

Performance: 0.020 ns/day, 1171.281 hours/ns, 2.372 timesteps/s
100.0% CPU use with 1 MPI tasks x no OpenMP threads

MPI task timing breakdown:
Section |  min time  |  avg time  |  max time  |%varavg| %total
---------------------------------------------------------------
Pair    | 3641.7     | 3641.7     | 3641.7     |   0.0 | 86.37
Bond    | 0.72503    | 0.72503    | 0.72503    |   0.0 |  0.02
Kspace  | 138.81     | 138.81     | 138.81     |   0.0 |  3.29
Neigh   | 352.93     | 352.93     | 352.93     |   0.0 |  8.37
Comm    | 4.0456     | 4.0456     | 4.0456     |   0.0 |  0.10
Output  | 0.13596    | 0.13596    | 0.13596    |   0.0 |  0.00
Modify  | 76.995     | 76.995     | 76.995     |   0.0 |  1.83
Other   |            | 1.24       |            |       |  0.03

Nlocal:    16384 ave 16384 max 16384 min
Histogram: 1 0 0 0 0 0 0 0 0 0
Nghost:    50670 ave 50670 max 50670 min
Histogram: 1 0 0 0 0 0 0 0 0 0
Neighs:    1.19888e+07 ave 1.19888e+07 max 1.19888e+07 min
Histogram: 1 0 0 0 0 0 0 0 0 0

Total # of neighbors = 11988752
Ave neighs/atom = 731.735
Ave special neighs/atom = 0.1875
Neighbor list builds = 899
Dangerous builds = ttthermo		0
reset_timestep	0
fix		2 all ave/time 1 1 500 c_thermo_temp c_thermo_pe c_thermo_press v_myVol v_myCella v_myCellb v_myCellc v_myCellgamma file data/current_run/cp_rawTemp${probeTemp}.dat # Potential energy, parameters, volume
fix		2 all ave/time 1 1 500 c_thermo_temp c_thermo_pe c_thermo_press v_myVol v_myCella v_myCellb v_myCellc v_myCellgamma file data/current_run/cp_rawTemp2000.dat 
run 		100000
PPPM initialization ...
  using 12-bit tables for long-range coulomb (../kspace.cpp:321)
  G vector (1/distance) = 0.20216
  grid = 36 50 24
  stencil order = 5
  estimated absolute RMS force accuracy = 0.000986985
  estimated relative force accuracy = 6.85423e-05
  using double precision FFTs
  3d grid and FFT values/proc = 65395 43200
Per MPI rank memory allocation (min/avg/max) = 185.4 | 185.4 | 185.4 Mbytes
Step Temp Volume Cella Cellb Cellc CellGamma Pxx Pyy Pzz Pxy Pxz Pyz Lx Ly Lz Press PotEng 
       0    2004.2149    167561.61    72.924378    72.924378    36.382992          120    44400.203    48815.367   -12751.795    840.42118   -820.64021   -940.92009    72.924378    63.154364    36.382992    26821.258   -307861.94 
  100000    1986.2754    170432.12    73.338446    73.338447    36.589577          120     19903.57    22353.427   -31114.143    36.619814    1568.5181   -3785.3031    73.338446    63.512958    36.589577    3714.2846   -307837.23 
Loop time of 40697.4 on 1 procs for 100000 steps with 16384 atoms

Performance: 0.021 ns/day, 1130.485 hours/ns, 2.457 timesteps/s
98.5% CPU use with 1 MPI tasks x no OpenMP threads

MPI task timing breakdown:
Section |  min time  |  avg time  |  max time  |%varavg| %total
---------------------------------------------------------------
Pair    | 34523      | 34523      | 34523      |   0.0 | 84.83
Bond    | 7.261      | 7.261      | 7.261      |   0.0 |  0.02
Kspace  | 1688       | 1688       | 1688       |   0.0 |  4.15
Neigh   | 3655.2     | 3655.2     | 3655.2     |   0.0 |  8.98
Comm    | 40.501     | 40.501     | 40.501     |   0.0 |  0.10
Output  | 0.00012898 | 0.00012898 | 0.00012898 |   0.0 |  0.00
Modify  | 770.93     | 770.93     | 770.93     |   0.0 |  1.89
Other   |            | 12.33      |            |       |  0.03

Nlocal:    16384 ave 16384 max 16384 min
Histogram: 1 0 0 0 0 0 0 0 0 0
Nghost:    50209 ave 50209 max 50209 min
Histogram: 1 0 0 0 0 0 0 0 0 0
Neighs:    1.17839e+07 ave 1.17839e+07 max 1.17839e+07 min
Histogram: 1 0 0 0 0 0 0 0 0 0

Total # of neighbors = 11783874
Ave neighs/atom = 719.231
Ave special neighs/atom = 0.1875
Neighbor list builds = 9335
Dangerous builds = 0
unfix		2
variable	probeTemp delete

print		" "
 
print		"All done!"
All done!
Total wall time: 12:30:53

