LAMMPS (16 Mar 2018)
  using 1 OpenMP thread(s) per MPI task
# Find minimum energy for Beryl

#----- Initialize Simulation -----
clear
  using 1 OpenMP thread(s) per MPI task
units 		metal
boundary 	p p p
atom_style 	full
variable	etol equal 1e-25
variable 	ftol equal 1e-25
variable 	maxiter equal 5000
variable 	maxeval equal 10000

#----- Create Atoms -----
read_data 	beryl_water_025.mod
  triclinic box = (0 0 0) to (9.208 7.97436 18.376) with tilt (-4.604 0 0)
  1 by 1 by 1 MPI processor grid
  reading atoms ...
  119 atoms
  scanning bonds ...
  2 = max bonds/atom
  scanning angles ...
  1 = max angles/atom
  reading bonds ...
  2 bonds
  reading angles ...
  1 angles
  2 = max # of 1-2 neighbors
  1 = max # of 1-3 neighbors
  1 = max # of 1-4 neighbors
  2 = max # of special neighbors
replicate 	1  1  1
  triclinic box = (0 0 0) to (9.208 7.97436 18.376) with tilt (-4.604 0 0)
  1 by 1 by 1 MPI processor grid
  119 atoms
  2 bonds
  1 angles
  2 = max # of 1-2 neighbors
  1 = max # of 1-3 neighbors
  1 = max # of 1-4 neighbors
  2 = max # of special neighbors
  Time spent = 0.000423908 secs

#----- Define Interatomic Potential -----
include		potential_main.mod
kspace_style 	pppm/tip4p 1.0e-4

# Neighbor Style
neighbor	0.3 bin
neigh_modify	delay 0 every 1 check yes

# Minimization style
min_style	cg

# Setup Output
thermo		10
thermo_style	custom	step temp vol cella cellb cellc cellgamma pxx pyy pzz pxy pxz pyz lx ly lz press pe #c_eatoms
thermo_modify	norm no
variable 	myVol equal vol
variable	myCella equal cella
variable	myCellb equal cellb
variable	myCellc equal cellc
variable	myCellgamma equal cellgamma
include 	potential_beryl.mod
# Potential Paramters
pair_style 	hybrid/overlay morse 5.5 buck 5.5 lj/cut/coul/long 5.5 8.5 lj/cut/tip4p/long 5 6 1 1 0.1546 8.5
pair_coeff    1    1 morse     		  0 	       0           0  # Be Be
pair_coeff    1    1 buck                 0            1           -201.0
pair_coeff    1    1 lj/cut/coul/long	  10120.	0.413
pair_coeff    1    2 morse     		  0 	       0           0  # Be Al
pair_coeff    1    2 buck                 0            1           0
pair_coeff    1    2 lj/cut/coul/long	  0	       0
pair_coeff    1    3 morse     		  0 	       0           0  # Al Si
pair_coeff    1    3 buck                 0            1           0
pair_coeff    1    3 lj/cut/coul/long	  0	       0
pair_coeff    1    4 morse 		  0.239919     2.527420    1.815405	#Be O
pair_coeff    1    4 buck                 0.000000     1.000000   -46.00000
pair_coeff    1    4 lj/cut/coul/long     529.000      0.528
pair_coeff    2    2 morse     		  0 	       0           0  # Al Al
pair_coeff    2    2 buck                 0            1           -492.
pair_coeff    2    2 lj/cut/coul/long	  60423		0.356
pair_coeff    2    3 morse     		  0 	       0           0  # Al si
pair_coeff    2    3 buck                 0            1           0
pair_coeff    2    3 lj/cut/coul/long	  0	       0
pair_coeff    2    4 morse 		  0.361581     1.900442    2.164818	#Al O
pair_coeff    2    4 buck                 0.000000     1.000000   -71.5
pair_coeff    2    4 lj/cut/coul/long     1420.0	0.482
pair_coeff    3    3 morse     		  0 	       0           0  # Si Si
pair_coeff    3    3 buck                 0            1           -282.
pair_coeff    3    3 lj/cut/coul/long	  19730		0.391
pair_coeff    3    4 morse 		  0.340554     2.006700    2.100000	#Si O
pair_coeff    3    4 buck                 0.000000     1.000000   -60.5
pair_coeff    3    4 lj/cut/coul/long     916.		0.504
pair_coeff    4    4 morse     		  0.042395     1.379316    3.618701  # O O
pair_coeff    4    4 buck                 0.000000     1.000000   -16.7
pair_coeff    4    4 lj/cut/coul/long	  3.16		1.05
include 	potential_water.mod
# Potential Paramters

pair_coeff    1    5 morse     		  0. 	       0.           0.  	# Ow Be
pair_coeff    1    5 buck                 0            1           -354.5
pair_coeff    1    5 lj/cut/tip4p/long	  39.637	1.1435
pair_coeff    2    5 morse     		  0 	       0           0  		# Ow Al
pair_coeff    2    5 buck                 0            1           -554.6
pair_coeff    2    5 lj/cut/tip4p/long	  96.854	1.0616
pair_coeff    3    5 morse     		  0 	       0           0  		# Ow Si
pair_coeff    3    5 buck                 0            1           -419.9
pair_coeff    3    5 lj/cut/tip4p/long	  55.345	1.1126
pair_coeff    4    5 morse     		  0 	       0           0  		# Ow O
pair_coeff    4    5 buck                 0            1           -102.9
pair_coeff    4    5 lj/cut/tip4p/long	  0.70042	1.8233
pair_coeff    5    6 morse     		  0 	       0           0  		# Ow Hw
pair_coeff    5    6 buck                 0            1           0
pair_coeff    5    6 lj/cut/tip4p/long	  0.000	      0.0

pair_coeff    5    5 morse     		  0 	       0           0  		# Ow Ow
pair_coeff    5    5 buck                 0            1           -625.4
pair_coeff    5    5 lj/cut/tip4p/long	  0.008038276	3.1589
pair_coeff    1    6 morse     		  0 	       0           0  		# Hw Be
pair_coeff    1    6 buck                 0            1           0
pair_coeff    1    6 lj/cut/tip4p/long	  0.000	      0.0
pair_coeff    2    6 morse     		  0 	       0           0  		# Hw Al
pair_coeff    2    6 buck                 0            1           0
pair_coeff    2    6 lj/cut/tip4p/long	  0.000	      0.0
pair_coeff    3    6 morse     		  0 	       0           0  		# Hw Si
pair_coeff    3    6 buck                 0            1           0
pair_coeff    3    6 lj/cut/tip4p/long	  0.000	      0.0
pair_coeff    4    6 morse     		  0 	       0           0  		# Hw O
pair_coeff    4    6 buck                 0            1           0
pair_coeff    4    6 lj/cut/tip4p/long	  0.000	      0.0
pair_coeff    6    6 morse     		  0 	       0           0  		# Hw Hw
pair_coeff    6    6 buck                 0            1           0
pair_coeff    6    6 lj/cut/tip4p/long	  0.000	      0.0



bond_style	harmonic
angle_style	harmonic
dihedral_style	none
improper_style	none

bond_coeff	1 35.756   	0.95720
angle_coeff	1 3.969		104.520
group		water type 5 6
3 atoms in group water


#------ Define Settings -----

# ----- Run Minimization -----

fix BRX all box/relax iso 1.013

dump MIN all custom 1 min.lammpstrj id type element x y z ix iy iz

minimize	1e-6 1e-6 5000 10000 # Performs actual minimization
PPPM initialization ...
  extracting TIP4P info from pair style
WARNING: System is not charge neutral, net charge = -0.002 (../kspace.cpp:302)
  using 12-bit tables for long-range coulomb (../kspace.cpp:321)
  G vector (1/distance) = 0.371901
  grid = 12 15 18
  stencil order = 5
  estimated absolute RMS force accuracy = 0.000601098
  estimated relative force accuracy = 4.17439e-05
  using double precision FFTs
  3d grid and FFT values/proc = 8602 3240
Neighbor list info ...
  update every 1 steps, delay 0 steps, check yes
  max neighbors/atom: 2000, page size: 100000
  master list distance cutoff = 9.1092
  ghost atom cutoff = 9.1092
  binsize = 4.5546, bins = 4 2 5
  4 neighbor lists, perpetual/occasional/extra = 4 0 0
  (1) pair morse, perpetual
      attributes: half, newton on
      pair build: half/bin/newton/tri
      stencil: half/bin/3d/newton/tri
      bin: standard
  (2) pair buck, perpetual, copy from (1)
      attributes: half, newton on
      pair build: copy
      stencil: none
      bin: none
  (3) pair lj/cut/coul/long, perpetual, skip from (1)
      attributes: half, newton on
      pair build: skip
      stencil: none
      bin: none
  (4) pair lj/cut/tip4p/long, perpetual, skip from (1)
      attributes: half, newton on
      pair build: skip
      stencil: none
      bin: none
Per MPI rank memory allocation (min/avg/max) = 11.18 | 11.18 | 11.18 Mbytes
Step Temp Volume Cella Cellb Cellc CellGamma Pxx Pyy Pzz Pxy Pxz Pyz Lx Ly Lz Press PotEng 
       0            0    1349.3116        9.208    9.2080001       18.376          120   -208270.33    -205741.2   -279354.99   -678.36275    -2300.119    492.33786        9.208     7.974362       18.376   -231122.18   -2412.8332 
      10            0    1345.2677     9.198792    9.1987921    18.357624          120   -204279.02   -201779.48   -275168.48    -658.9934   -2258.5489     474.4425     9.198792    7.9663876    18.357624   -227075.66   -2413.7055 
      20            0    1341.2319     9.189584    9.1895841    18.339248          120   -199097.81   -196627.61    -270607.6   -639.50581   -2216.8896     456.6869     9.189584    7.9584133    18.339248   -222111.01   -2414.2713 
      30            0    1337.2041     9.180376    9.1803761    18.320872          120   -194016.44   -191575.14   -266141.72   -620.46211   -2175.9113    438.40227     9.180376    7.9504389    18.320872   -217244.43   -2414.8607 
      40            0    1333.1845     9.171168    9.1711681    18.302496          120   -188684.48   -186272.42   -261441.42   -600.64124   -2134.0057    420.48229     9.171168    7.9424646    18.302496   -212132.77   -2415.4003 
      50            0    1329.1729      9.16196    9.1619601     18.28412          120   -183272.64   -180890.89   -256667.15   -580.80262   -2091.8176    402.32318      9.16196    7.9344902     18.28412   -206943.56   -2415.9248 
      60            0    1325.1694     9.152752    9.1527521    18.265744          120   -177859.64   -175506.94   -252147.18   -558.01309   -2049.4103    385.07037     9.152752    7.9265158    18.265744   -201837.92   -2416.4723 
      70            0    1321.1739     9.143544    9.1435441    18.247368          120   -172282.42   -169959.55   -247217.35   -538.00937   -2006.8781    366.96834     9.143544    7.9185415    18.247368   -196486.44   -2416.9691 
      80            0    1317.1865     9.134336    9.1343361    18.228992          120   -166630.75   -164339.57   -242224.89   -517.65863    -1963.894    348.17085     9.134336    7.9105671    18.228992   -191065.07   -2417.4517 
      90            0     1313.207     9.125128    9.1251281    18.210616          120   -160896.88   -158635.95   -237156.57   -497.49125   -1920.9489    329.98187     9.125128    7.9025927    18.210616   -185563.14   -2417.9204 
     100            0    1309.2357      9.11592    9.1159201     18.19224          120   -155319.06   -153088.82    -232011.4   -477.43718   -1878.0366    312.03914      9.11592    7.8946184     18.19224   -180139.76    -2418.409 
     110            0    1305.2723     9.106712    9.1067121    18.173864          120   -149421.65   -147222.33   -226787.87   -458.28431   -1834.4201    293.99799     9.106712     7.886644    18.173864   -174477.28    -2418.848 
     120            0    1301.3169     9.097504    9.0975041    18.155488          120   -143438.59   -141269.88   -221486.57   -438.05048   -1791.0881    275.36986     9.097504    7.8786697    18.155488   -168731.68   -2419.2727 
     130            0    1297.3695     9.088296    9.0882961    18.137112          120   -137369.87    -135231.9    -216105.3   -417.67687   -1747.5273    256.85022     9.088296    7.8706953    18.137112   -162902.36   -2419.6819 
     140            0    1293.4302     9.079088    9.0790881    18.118736          120   -131184.17   -129077.05    -210600.6   -397.15587   -1703.8664    238.33304     9.079088    7.8627209    18.118736   -156953.94   -2420.0717 
     150            0    1289.4988      9.06988    9.0698801     18.10036          120   -124892.83   -122816.31    -205031.8    -377.5406   -1659.5413     220.0002      9.06988    7.8547466     18.10036   -150913.65   -2420.4468 
     160            0    1285.5753     9.060672    9.0606721    18.081984          120   -118558.87   -116512.61   -199404.04   -356.02514   -1615.5509     201.4594     9.060672    7.8467722    18.081984   -144825.17   -2420.8093 
     170            0    1281.6599     9.051464    9.0514641    18.063608          120   -112133.99   -110119.61   -193692.52   -335.46394   -1571.2279    182.85219     9.051464    7.8387978    18.063608   -138648.71   -2421.1564 
     180            0    1277.7524     9.042256    9.0422561    18.045232          120   -105608.75    -103625.6   -187895.62   -314.59779   -1526.7962    163.79002     9.042256    7.8308235    18.045232   -132376.66   -2421.4877 
     190            0    1273.8528     9.033048    9.0330481    18.026856          120   -99023.736   -97071.461   -182015.19    -294.2833   -1481.1363    144.98709     9.033048    7.8228491    18.026856    -126036.8   -2421.8043 
     200            0    1269.9612      9.02384    9.0238401     18.00848          120   -92348.329   -90427.604   -176108.03   -273.43056   -1436.3059    125.96594      9.02384    7.8148748     18.00848   -119627.99   -2422.1076 
     210            0    1266.0776     9.014632    9.0146321    17.990104          120   -85577.255   -83688.474   -170055.21   -252.44135   -1391.3489    106.90917     9.014632    7.8069004    17.990104   -113106.98   -2422.3927 
     220            0    1262.2018     9.005424    9.0054241    17.971728          120   -78739.939   -76883.144   -163971.68   -231.33812   -1346.1421    87.750883     9.005424     7.798926    17.971728   -106531.59   -2422.6648 
     230            0     1258.334     8.996216    8.9962161    17.953352          120   -71761.786   -69937.267   -157793.54   -210.29767    -1300.817    68.704351     8.996216    7.7909517    17.953352   -99830.864   -2422.9174 
     240            0    1254.4741     8.987008    8.9870081    17.934976          120   -64685.563   -62890.897   -151473.99   -185.38999    -1257.101    50.553968     8.987008    7.7829773    17.934976   -93016.816   -2423.1522 
     250            0    1250.6221       8.9778    8.9778001      17.9166          120   -57665.001   -55922.976   -145090.78   -154.36219   -1206.8895    33.061072       8.9778     7.775003      17.9166   -86226.254   -2423.3877 
     260            0    1246.7779     8.968592    8.9685921    17.898224          120    -50870.39   -49160.938    -140380.5   -132.64335   -1160.6818    13.543091     8.968592    7.7670286    17.898224   -80137.276   -2423.8819 
     270            0    1242.9417     8.959384    8.9593841    17.879848          120   -43498.884   -41823.065   -133797.66   -110.30017   -1114.1737   -6.3128954     8.959384    7.7590542    17.879848   -73039.869    -2424.067 
     280            0    1239.1133     8.950176    8.9501761    17.861472          120   -36013.838   -34382.536   -127112.56   -80.056981   -1082.0632   -28.497178     8.950176    7.7510799    17.861472   -65836.312   -2424.2321 
     290            0    1235.2929     8.940968    8.9409681    17.843096          120   -28384.458   -26785.471   -120328.35   -57.451893   -1035.4429   -48.091004     8.940968    7.7431055    17.843096   -58499.427   -2424.3782 
     300            0    1231.4802      8.93176    8.9317601     17.82472          120   -20704.749   -19139.223   -113454.65   -35.336331    -988.8016   -67.929789      8.93176    7.7351311     17.82472   -51099.541   -2424.5111 
     310            0    1227.6754     8.922552    8.9225521    17.806344          120   -12930.414   -11391.927   -106484.72    -9.185488   -941.94676   -87.666347     8.922552    7.7271568    17.806344   -43602.354   -2424.6282 
     320            0    1223.8785     8.913344    8.9133441    17.787968          120   -5026.8451   -3522.7722   -99407.782    13.209349   -895.25416   -107.65767     8.913344    7.7191824    17.787968     -35985.8   -2424.7241 
     330            0    1220.0894     8.904136    8.9041361    17.769592          120    2965.0309    4433.9402   -92228.102    35.617337   -847.63114   -127.79092     8.904136    7.7112081    17.769592   -28276.377   -2424.8042 
     340            0    1216.3082     8.894928    8.8949281    17.751216          120    10823.653    12255.196   -84959.463    56.682321   -802.00705   -151.46963     8.894928    7.7032337    17.751216   -20626.871   -2424.9023 
     350            0    1212.5347      8.88572    8.8857201     17.73284          120    18980.886    20378.006   -77574.281    79.723984   -755.05307   -170.86278      8.88572    7.6952593     17.73284   -12738.463   -2424.9522 
     360            0    1208.7691     8.876512    8.8765121    17.714464          120    27241.595    28598.726   -70030.872     104.1143   -703.86418    -193.3778     8.876512     7.687285    17.714464   -4730.1836   -2424.9883 
     370            0    1206.5134    8.8709872    8.8709873    17.703438          120    30352.264    31547.661   -63651.535    118.83346   -662.74572   -183.79936    8.8709872    7.6825004    17.703438   -583.87002   -2425.3381 
     380            0    1205.7622    8.8691456    8.8691457    17.699763          120    27795.036    28691.588   -57783.141    124.55255   -622.88191   -138.61215    8.8691456    7.6809055    17.699763   -432.17247   -2426.0555 
     389            0    1205.3867    8.8682248    8.8682249    17.697926          120    10973.217    10715.493   -35033.973    107.88949   -471.86092    83.802906    8.8682248     7.680108    17.697926   -4448.4213   -2428.4574 
Loop time of 1.7105 on 1 procs for 389 steps with 119 atoms

99.9% CPU use with 1 MPI tasks x 1 OpenMP threads

Minimization stats:
  Stopping criterion = energy tolerance
  Energy initial, next-to-last, final = 
        -2412.83320781     -2428.45506484     -2428.45749119
  Force two-norm initial, final = 584.144 13.8744
  Force max component initial, final = 583.938 10.4273
  Final line search alpha, max atom move = 8.10779e-06 8.45421e-05
  Iterations, force evaluations = 389 389

MPI task timing breakdown:
Section |  min time  |  avg time  |  max time  |%varavg| %total
---------------------------------------------------------------
Pair    | 0.59269    | 0.59269    | 0.59269    |   0.0 | 34.65
Bond    | 0.00027108 | 0.00027108 | 0.00027108 |   0.0 |  0.02
Kspace  | 0.40297    | 0.40297    | 0.40297    |   0.0 | 23.56
Neigh   | 0.007401   | 0.007401   | 0.007401   |   0.0 |  0.43
Comm    | 0.0076365  | 0.0076365  | 0.0076365  |   0.0 |  0.45
Output  | 0.094989   | 0.094989   | 0.094989   |   0.0 |  5.55
Modify  | 0          | 0          | 0          |   0.0 |  0.00
Other   |            | 0.6046     |            |       | 35.34

Nlocal:    119 ave 119 max 119 min
Histogram: 1 0 0 0 0 0 0 0 0 0
Nghost:    2629 ave 2629 max 2629 min
Histogram: 1 0 0 0 0 0 0 0 0 0
Neighs:    16095 ave 16095 max 16095 min
Histogram: 1 0 0 0 0 0 0 0 0 0

Total # of neighbors = 16095
Ave neighs/atom = 135.252
Ave special neighs/atom = 0.0504202
Neighbor list builds = 6
Dangerous builds = 0
undump MIN

reset_timestep	0
timestep 0.0001

velocity        all create 300.0 87287 loop geom
fix		2 water shake 0.0001 20 100  b 1 a 1
  0 = # of size 2 clusters
  0 = # of size 3 clusters
  0 = # of size 4 clusters
  1 = # of frozen angles
fix		1 all npt temp 300.0 30.0 .1 iso 1.013 1.013 1.0

dump TRJ all custom 1 dump.lammpstrj id type element x y z ix iy iz
dump_modify TRJ sort 1 element Be Al Si O H O

run 		10000
PPPM initialization ...
  extracting TIP4P info from pair style
  using 12-bit tables for long-range coulomb (../kspace.cpp:321)
  G vector (1/distance) = 0.375079
  grid = 12 15 18
  stencil order = 5
  estimated absolute RMS force accuracy = 0.00053528
  estimated relative force accuracy = 3.71732e-05
  using double precision FFTs
  3d grid and FFT values/proc = 8602 3240
Neighbor list info ...
  update every 1 steps, delay 0 steps, check yes
  max neighbors/atom: 2000, page size: 100000
  master list distance cutoff = 9.1092
  ghost atom cutoff = 9.1092
  binsize = 4.5546, bins = 3 2 4
  4 neighbor lists, perpetual/occasional/extra = 4 0 0
  (1) pair morse, perpetual
      attributes: half, newton on
      pair build: half/bin/newton/tri
      stencil: half/bin/3d/newton/tri
      bin: standard
  (2) pair buck, perpetual, copy from (1)
      attributes: half, newton on
      pair build: copy
      stencil: none
      bin: none
  (3) pair lj/cut/coul/long, perpetual, skip from (1)
      attributes: half, newton on
      pair build: skip
      stencil: none
      bin: none
  (4) pair lj/cut/tip4p/long, perpetual, skip from (1)
      attributes: half, newton on
      pair build: skip
      stencil: none
      bin: none
SHAKE stats (type/ave/delta) on step 0
  1 0.962861 0.0021813
  1 106.976 0
Per MPI rank memory allocation (min/avg/max) = 11.7 | 11.7 | 11.7 Mbytes
Step Temp Volume Cella Cellb Cellc CellGamma Pxx Pyy Pzz Pxy Pxz Pyz Lx Ly Lz Press PotEng 
       0     302.5641    1205.3867    8.8682248    8.8682249    17.697926          120    9653.9918    2322.7934   -36801.113   -6216.2055    1256.7589    7523.4068    8.8682248     7.680108    17.697926   -8274.7761   -2428.4648 
      10    297.55141    1205.3863    8.8682239    8.8682239    17.697924          120    15527.584    14932.057   -30154.606    712.27676   -255.13813    316.93803    8.8682239    7.6801072    17.697924    101.67854    -2428.393 
      20    286.96248    1205.3861    8.8682233    8.8682233    17.697923          120    15744.081     15479.34   -29205.078    1316.1013   -704.51648   -43.387519    8.8682233    7.6801067    17.697923     672.7809   -2428.2124 
      30     271.9651    1205.3864    8.8682242    8.8682243    17.697924          120    15976.025    16111.365   -27760.465    1811.6964   -1178.3381   -429.68723    8.8682242    7.6801075    17.697924    1442.3082   -2427.9855 
      40     254.7688    1205.3881    8.8682284    8.8682284    17.697933          120    16267.783    16819.642   -25857.053    2265.3134   -1673.2626   -842.49698    8.8682284    7.6801111    17.697933     2410.124   -2427.7256 
      50    237.94173     1205.392    8.8682378    8.8682379    17.697952          120    16568.487    17536.053   -23543.715    2673.6428   -2181.5363   -1267.7845    8.8682378    7.6801193    17.697952    3520.2751   -2427.4697 
      60     224.0247     1205.399     8.868255    8.8682551    17.697986          120     16811.87    18177.235   -20840.486    3031.2634   -2693.8522   -1684.1537     8.868255    7.6801342    17.697986    4716.2063   -2427.2516 
      70    215.13065    1205.4102    8.8682825    8.8682825    17.698041          120    16933.918    18649.837   -17873.787    3307.2095   -3237.2494   -2107.0674    8.8682825     7.680158    17.698041    5903.3226   -2427.1126 
      80    212.60404    1205.4266    8.8683227    8.8683228    17.698121          120    16898.659    18893.665   -14679.569    3526.4502   -3763.9135   -2546.0485    8.8683227    7.6801929    17.698121    7037.5848   -2427.0745 
      90    216.84329    1205.4493    8.8683783    8.8683784    17.698232          120    16709.188     18885.38   -11264.765     3682.691   -4279.8208   -2971.2711    8.8683783     7.680241    17.698232    8109.9342   -2427.1385 
SHAKE stats (type/ave/delta) on step 100
  1 0.957201 2.94614e-10
  1 104.52 0
     100    227.26943    1205.4791    8.8684516    8.8684516    17.698378          120    16371.919    18646.389   -7663.4081    3785.8635   -4777.7738   -3386.7519    8.8684516    7.6803044    17.698378       9118.3   -2427.2963 
     110    242.46862    1205.5171    8.8685446    8.8685447    17.698564          120    15911.577    18198.804   -3826.5274    3857.8442   -5251.9266   -3790.0101    8.8685446     7.680385    17.698564    10094.618   -2427.5235 
     120    260.46315     1205.564    8.8686596    8.8686597    17.698793          120    15403.636     17573.17     225.6836    3895.2689   -5704.7035    -4183.015    8.8686596    7.6804846    17.698793    11067.497   -2427.7917 
     130    279.06019    1205.6207    8.8687987    8.8687988    17.699071          120    14843.374    16831.198    4513.1274    3913.9304   -6135.9045   -4565.1707    8.8687987     7.680605    17.699071    12062.566   -2428.0715 
     140    296.21755    1205.6881     8.868964    8.8689641    17.699401          120    14312.569    16047.506    9053.8123    3918.3313   -6543.1097   -4942.5604     8.868964    7.6807482    17.699401    13137.963    -2428.329 
     150    310.34692    1205.7672     8.869158     8.869158    17.699788          120    13808.569    15285.722    13846.547    3944.2654   -6932.5756   -5339.0111     8.869158    7.6809162    17.699788    14313.613   -2428.5436 
     160    320.50302     1205.859    8.8693831    8.8693831    17.700237          120    13393.211    14610.861    18929.932    3977.5006   -7302.1452   -5749.6684    8.8693831    7.6811111    17.700237    15644.668   -2428.6931 
     170    326.43808    1205.9647    8.8696422    8.8696423    17.700754          120    13066.136     14023.15    24266.099    4036.0411   -7662.0101   -6206.0105    8.8696422    7.6813355    17.700754    17118.462   -2428.7801 
     180    328.53726    1206.0857    8.8699386    8.8699387    17.701346          120    12793.019     13527.25    29858.802    4113.0081   -8005.7633   -6705.2282    8.8699386    7.6815923    17.701346    18726.357    -2428.809 
     190    327.62349    1206.2232    8.8702758    8.8702759    17.702019          120    12579.273    13108.244     35657.63    4188.9418   -8333.3648   -7257.1343    8.8702758    7.6818843    17.702019    20448.382   -2428.7923 
SHAKE stats (type/ave/delta) on step 200
  1 0.957204 5.21819e-10
  1 104.52 0
     200    324.71859    1206.3789    8.8706575    8.8706576     17.70278          120    12373.831    12774.374    41656.348    4293.9254   -8632.1214   -7861.3496    8.8706575    7.6822148     17.70278    22268.184    -2428.743 
     210    320.77257    1206.5544    8.8710876    8.8710877    17.703639          120    12120.539    12473.412    47759.613    4395.0774   -8911.1827   -8512.6082    8.8710876    7.6825873    17.703639    24117.854   -2428.6822 
     220    316.44248    1206.7513    8.8715702    8.8715703    17.704602          120    11799.734    12193.605    53928.314    4490.4316   -9145.2318   -9194.2402    8.8715702    7.6830053    17.704602    25973.884   -2428.6185 
     230    311.96936    1206.9714    8.8721093    8.8721094    17.705678          120    11380.875    11908.304    60111.915    4575.6899   -9324.2646   -9908.2091    8.8721093    7.6834722    17.705678    27800.365   -2428.5578 
     240    307.15609    1207.2161     8.872709     8.872709    17.706874          120     10847.19    11621.975    66352.795    4628.4631   -9458.4972   -10583.546     8.872709    7.6839915    17.706874     29607.32   -2428.4867 
     250    301.46666    1207.4872    8.8733731    8.8733731      17.7082          120    10163.052    11304.767    72505.237    4618.9885    -9516.627   -11201.238    8.8733731    7.6845666      17.7082    31324.352   -2428.4107 
     260    294.20847    1207.7862    8.8741054    8.8741054    17.709661          120    9372.6691    10976.135    78572.104     4584.107   -9530.8503   -11804.339    8.8741054    7.6852008    17.709661    32973.636   -2428.3094 
     270    284.74053    1208.1145    8.8749095    8.8749096    17.711266          120    8424.7903    10647.237    84530.675    4505.1062   -9474.2049   -12309.256    8.8749095    7.6858972    17.711266    34534.234   -2428.1687 
     280    272.70472    1208.4737    8.8757889     8.875789    17.713021          120    7336.4622    10299.084     90286.91    4377.4845   -9345.6243   -12748.751    8.8757889    7.6866588    17.713021    35974.152   -2427.9911 
     290    258.17989     1208.865    8.8767468    8.8767468    17.714933          120    6107.4266    9930.9497    95737.978    4203.3802    -9169.629    -13128.85    8.8767468    7.6874883    17.714933    37258.785   -2427.7776 
SHAKE stats (type/ave/delta) on step 300
  1 0.957212 6.33372e-10
  1 104.52 0
     300    241.74276    1209.2896    8.8777859    8.8777859    17.717006          120    4725.4103     9538.066    100797.12    3970.7953   -8964.9643   -13466.439    8.8777859    7.6883882    17.717006    38353.533   -2427.5371 
     310    224.42573    1209.7484    8.8789086    8.8789087    17.719247          120    3202.3336    9081.9032    105362.06    3700.3704   -8766.3067   -13751.408    8.8789086    7.6893605    17.719247    39215.432     -2427.29 
     320    207.56225    1210.2424     8.880117    8.8801171    17.721658          120    1556.5526    8632.8016    109366.73    3371.3282   -8572.4274   -14061.334     8.880117     7.690407    17.721658    39852.029   -2427.0453 
     330    192.56741    1210.7722    8.8814125    8.8814126    17.724244          120   -188.53657    8202.2583    112697.52    3021.4781   -8424.8381   -14393.508    8.8814125    7.6915289    17.724244    40237.082   -2426.8251 
     340    180.70185     1211.338    8.8827959     8.882796    17.727004          120   -2029.2824    7731.0558    115290.58    2625.8812   -8337.7472   -14769.271    8.8827959     7.692727    17.727004    40330.785   -2426.6578 
     350    172.86126    1211.9402    8.8842675    8.8842676    17.729941          120   -3932.3785    7263.2397    117118.04    2210.8553   -8331.1891   -15192.197    8.8842675    7.6940015    17.729941    40149.635   -2426.5515 
     360    169.42883    1212.5785    8.8858271    8.8858272    17.733054          120   -5850.8745    6820.9677    118230.14    1788.3033   -8408.2617   -15634.529    8.8858271    7.6953521    17.733054    39733.412   -2426.5055 
     370    170.23571    1213.2528    8.8874737    8.8874738     17.73634          120    -7751.429    6396.8648    118532.12    1349.7235   -8588.0613   -16147.577    8.8874737    7.6967781     17.73634    39059.185   -2426.5309 
     380     174.6299    1213.9623     8.889206     8.889206    17.739797          120   -9586.9253    6020.8011    118135.46    915.18381   -8841.6447   -16727.831     8.889206    7.6982783    17.739797    38189.778   -2426.6079 
     390    181.63436    1214.7066    8.8910221    8.8910222    17.743421          120   -11327.732    5680.7387    117033.99    495.13873   -9205.7254   -17309.415    8.8910221    7.6998511    17.743421    37128.998   -2426.7349 
SHAKE stats (type/ave/delta) on step 400
  1 0.957221 7.73594e-10
  1 104.52 0
     400    190.14203    1215.4846    8.8929199    8.8929199    17.747208          120   -12926.565    5416.0734    115388.44    99.011577   -9618.7485   -17867.603    8.8929199    7.7014946    17.747208    35959.317   -2426.8791 
     410    199.14748    1216.2953    8.8948968    8.8948968    17.751154          120   -14353.703    5231.0039    113197.46   -268.48101   -10058.381   -18409.405    8.8948968    7.7032066    17.751154    34691.589   -2427.0312 
     420    207.92598    1217.1378    8.8969501    8.8969501    17.755251          120   -15590.958    5132.8427    110546.56    -615.7442   -10524.726    -18912.67    8.8969501    7.7049848    17.755251    33362.814   -2427.1761 
     430    216.14946    1218.0109    8.8990769     8.899077    17.759496          120    -16605.62    5110.5502    107408.07   -952.98234   -10982.818    -19377.49    8.8990769    7.7068268    17.759496    31970.999   -2427.3081 
     440    223.90423    1218.9134    8.9012743    8.9012744    17.763881          120   -17518.369    5147.7654    103823.54   -1232.6936   -11366.004   -19794.115    8.9012743    7.7087298    17.763881    30484.311   -2427.4371 
     450    231.62538     1219.844     8.903539    8.9035391    17.768401          120   -18246.535    5233.9249    99693.407   -1503.5166   -11685.485   -20229.062     8.903539    7.7106911    17.768401    28893.599   -2427.5659 
     460    239.96186    1220.8014    8.9058676    8.9058677    17.773048          120   -18831.911     5385.746    95081.671   -1740.7151   -11961.264   -20698.017    8.9058676    7.7127077    17.773048    27211.835    -2427.693 
     470    249.58611     1221.784    8.9082564    8.9082565    17.777815          120   -19369.768    5503.9714    89874.204    -2001.221   -12067.215   -21146.543    8.9082564    7.7147764    17.777815    25336.135   -2427.8483 
     480    261.00775    1222.7902    8.9107012    8.9107013    17.782694          120   -19849.263    5640.0625    84150.789   -2242.7038    -12052.73   -21656.448    8.9107012    7.7168937    17.782694    23313.863   -2428.0218 
     490    274.43203    1223.8182    8.9131976    8.9131977    17.787676          120   -20314.055    5828.3775    77866.749   -2526.8255   -11883.876   -22206.125    8.9131976    7.7190556    17.787676    21127.024   -2428.2144 
SHAKE stats (type/ave/delta) on step 500
  1 0.957228 1.33665e-09
  1 104.52 0
     500    289.64387    1224.8661    8.9157408    8.9157409    17.792751          120   -20836.672    5863.4799    71037.507   -2812.4722   -11594.581   -22757.937    8.9157408    7.7212581    17.792751    18688.105   -2428.4535 
     510     306.0322    1225.9316    8.9183253    8.9183254    17.797909          120   -21410.919    5900.4928     63781.51   -3085.5556   -11212.025   -23338.221    8.9183253    7.7234964    17.797909    16090.361   -2428.7032 
     520    322.67238    1227.0124    8.9209454    8.9209455    17.803138          120   -22082.722    5863.0465    56174.113   -3363.2498   -10728.241   -23953.983    8.9209454    7.7257654    17.803138    13318.146   -2428.9612 
     530    338.47898     1228.106    8.9235949     8.923595    17.808425          120    -22791.24    5807.4324    48402.004   -3616.0308   -10174.491   -24533.632    8.9235949      7.72806    17.808425    10472.732   -2429.1896 
     540    352.37704    1229.2098    8.9262675    8.9262676    17.813759          120   -23527.776    5676.0711    40496.302   -3882.7871   -9625.1408   -25131.576    8.9262675    7.7303745    17.813759    7548.1991   -2429.3902 
     550    363.47932     1230.321    8.9289566    8.9289567    17.819125          120   -24263.072    5574.6234    32538.628   -4146.9799     -9054.19   -25796.397    8.9289566    7.7327034    17.819125    4616.7265    -2429.536 
     560    371.21802    1231.4371    8.9316556    8.9316557    17.824512          120    -25034.85    5287.3853    24622.301   -4376.7206   -8544.0126   -26398.023    8.9316556    7.7350408    17.824512    1624.9456   -2429.6476 
     570    375.40886    1232.5551    8.9343578    8.9343579    17.829904          120   -25777.315     4912.391    16826.851   -4520.1892   -8043.2879   -26987.116    8.9343578    7.7373809    17.829904   -1346.0242   -2429.7046 
     580    376.29171    1233.6723    8.9370565    8.9370565     17.83529          120   -26398.319    4544.2147    9293.9706   -4600.2663   -7588.6943   -27551.643    8.9370565     7.739718     17.83529   -4186.7112   -2429.6834 
     590    374.43683    1234.7861    8.9397452    8.9397452    17.840656          120    -26995.97    4010.6858    1959.7855   -4634.9755   -7150.0215   -28139.013    8.9397452    7.7420465    17.840656   -7008.4994     -2429.63 
SHAKE stats (type/ave/delta) on step 600
  1 0.957229 6.04916e-10
  1 104.52 0
     600    370.66335    1235.8937    8.9424175    8.9424176    17.845989          120   -27510.478    3322.8309   -5225.7025   -4558.8987    -6821.387   -28700.103    8.9424175    7.7443608    17.845989   -9804.4499   -2429.5544 
     610    365.92471    1236.9926    8.9450671    8.9450671    17.851276          120   -27990.808    2489.6787   -12187.477   -4394.4632   -6543.8818   -29286.245    8.9450671    7.7466554    17.851276   -12562.869   -2429.4652 
     620     361.1486    1238.0801    8.9476876    8.9476876    17.856506          120   -28392.133    1584.4342   -18860.409   -4190.3732    -6333.087    -29924.87    8.9476876    7.7489248    17.856506   -15222.703   -2429.3584 
     630    357.11503    1239.1536    8.9502729     8.950273    17.861665          120   -28795.726    391.63483   -25300.165   -3914.7356   -6156.8774    -30581.43    8.9502729    7.7511638    17.861665   -17901.419   -2429.2771 
     640    354.33611    1240.2105    8.9528169     8.952817    17.866742          120   -29173.081   -907.90752   -31501.901   -3606.3661   -6018.6117   -31374.521    8.9528169     7.753367    17.866742    -20527.63   -2429.2094 
     650     352.9824    1241.2484    8.9553136    8.9553137    17.871725          120   -29484.782    -2345.721   -37318.535   -3219.2802   -5868.7585   -32145.069    8.9553136    7.7555292    17.871725   -23049.679   -2429.1432 
     660    352.82772    1242.2648    8.9577572    8.9577572    17.876601          120   -29806.652   -3930.5503   -43042.423   -2857.2847   -5825.2454   -33070.521    8.9577572    7.7576454    17.876601   -25593.208   -2429.1174 
     670    353.33056    1243.2571    8.9601418    8.9601419     17.88136          120   -30082.745   -5497.8212   -48409.021   -2479.5032   -5812.2571   -34034.212    8.9601418    7.7597105     17.88136   -27996.529   -2429.0855 
     680    353.75024    1244.2232     8.962462     8.962462    17.885991          120   -30261.692   -7144.3588   -53591.349   -2175.7507    -5848.822   -35036.699     8.962462    7.7617198    17.885991   -30332.466   -2429.0699 
     690    353.30362    1245.1606    8.9647123    8.9647124    17.890481          120   -30369.799   -8675.3231    -58351.54    -1925.961   -5939.2602   -36112.141    8.9647123    7.7636687    17.890481   -32465.554   -2429.0281 
SHAKE stats (type/ave/delta) on step 700
  1 0.957223 1.51498e-09
  1 104.52 0
     700    351.35231    1246.0674    8.9668879    8.9668879    17.894823          120   -30366.683   -10051.111    -62716.38   -1734.3957   -6077.8589   -37128.745    8.9668879    7.7655528    17.894823   -34378.058   -2428.9572 
     710    347.58406    1246.9415    8.9689842    8.9689842    17.899007          120   -30280.311    -11444.88   -66816.856    -1645.667   -6244.2696   -37983.523    8.9689842    7.7673682    17.899007   -36180.682   -2428.8965 
     720    342.07978    1247.7813    8.9709971    8.9709972    17.903024          120   -29958.818   -12468.818   -70495.342   -1623.0429   -6432.1568   -38842.293    8.9709971    7.7691115    17.903024   -37640.993   -2428.7791 
     730    335.36094    1248.5852    8.9729233    8.9729234    17.906868          120   -29557.028   -13323.204   -73797.916   -1729.5221   -6635.6811   -39570.345    8.9729233    7.7707796    17.906868   -38892.716   -2428.6552 
     740    328.28532     1249.352    8.9747599    8.9747599    17.910533          120   -29029.166   -13935.123   -76802.679   -1873.4931   -6894.9325   -40271.131    8.9747599    7.7723701    17.910533   -39922.323   -2428.5289 
     750    321.88561    1250.0807    8.9765043    8.9765044    17.914014          120   -28378.513   -14325.191   -79426.292   -2138.8588   -7161.6538   -40854.791    8.9765043    7.7738809    17.914014   -40709.999   -2428.4049 
     760     317.2061    1250.7704    8.9781549     8.978155    17.917308          120   -27646.462   -14529.513   -81677.937   -2443.7535   -7443.6633   -41379.279    8.9781549    7.7753103    17.917308   -41284.637   -2428.3007 
     770    315.07578    1251.4205    8.9797103    8.9797103    17.920412          120   -27001.164   -14676.499   -83682.582   -2905.1707   -7744.0935   -41882.028    8.9797103    7.7766573    17.920412   -41786.748   -2428.2699 
     780    315.97062    1252.0306    8.9811693    8.9811694    17.923324          120   -26196.672   -14688.565   -85390.723   -3373.8936   -8090.6204    -42385.45    8.9811693    7.7779208    17.923324   -42091.987   -2428.2684 
     790    319.96669    1252.6003    8.9825312    8.9825313    17.926042          120   -25335.598   -14621.083   -86754.153   -3914.2641   -8498.7537   -42910.961    8.9825312    7.7791003    17.926042   -42236.945   -2428.3164 
SHAKE stats (type/ave/delta) on step 800
  1 0.957213 4.41477e-09
  1 104.52 0
     800    326.69778    1253.1294    8.9837957    8.9837957    17.928565          120   -24384.485    -14482.19   -87723.871   -4520.2373   -8927.7891   -43478.179    8.9837957    7.7801953    17.928565   -42196.849   -2428.3986 
     810    335.44954    1253.6178    8.9849628    8.9849628    17.930894          120   -23281.495   -14241.797   -88298.407    -5136.543   -9468.9063   -44079.272    8.9849628    7.7812061    17.930894   -41940.566    -2428.509 
     820    345.26073    1254.0659    8.9860332    8.9860333    17.933031          120   -22043.311   -13907.587   -88432.511   -5837.4638   -10083.394   -44691.403    8.9860332    7.7821331    17.933031   -41461.136    -2428.636 
     830    355.13793    1254.4741    8.9870081    8.9870081    17.934976          120   -20599.001   -13483.779   -88090.811   -6554.1813   -10799.159   -45358.711    8.9870081    7.7829774    17.934976   -40724.531    -2428.759 
     840    364.22066    1254.8431    8.9878891    8.9878891    17.936734          120   -19059.782   -13013.804   -87318.527   -7273.9888   -11539.957   -46053.699    8.9878891    7.7837403    17.936734   -39797.371   -2428.8941 
     850    371.92249    1255.1737    8.9886784    8.9886784     17.93831          120   -17243.817   -12280.677   -85991.166   -8034.3862   -12363.752   -46780.653    8.9886784    7.7844239     17.93831    -38505.22   -2428.9773 
     860    378.00564    1255.4672     8.989379     8.989379    17.939708          120   -15239.281    -11531.52   -84312.096   -8779.2347   -13168.327   -47620.105     8.989379    7.7850306    17.939708   -37027.632   -2429.0614 
     870    382.58662     1255.725    8.9899943    8.9899944    17.940936          120   -13001.087   -10736.676    -82251.52   -9511.5605    -14085.09   -48470.026    8.9899943    7.7855635    17.940936   -35329.761   -2429.1348 
     880    386.06237    1255.9488    8.9905283    8.9905284    17.942001          120   -10457.233   -9827.8442   -79824.094   -10248.559   -14990.212   -49297.513    8.9905283     7.786026    17.942001   -33369.724   -2429.1756 
     890      388.995    1256.1405    8.9909855    8.9909856    17.942914          120   -7876.3083   -8832.6165   -77231.936   -10979.628    -15927.53   -50207.958    8.9909855    7.7864219    17.942914    -31313.62   -2429.2352 
SHAKE stats (type/ave/delta) on step 900
  1 0.957204 3.48066e-09
  1 104.52 0
     900    391.97019    1256.3019    8.9913707    8.9913708    17.943682          120   -5077.2476   -7725.0218   -74377.159   -11661.494   -16956.941   -51131.739    8.9913707    7.7867555    17.943682    -29059.81   -2429.2804 
     910     395.4489    1256.4354    8.9916891    8.9916891    17.944318          120   -2140.6243   -6510.4051   -71410.272   -12318.157   -17938.292   -52086.989    8.9916891    7.7870312    17.944318     -26687.1   -2429.3336 
     920    399.72556    1256.5431    8.9919461    8.9919461    17.944831          120    850.53534   -5182.5198   -68341.763   -12948.727   -18907.354   -53030.167    8.9919461    7.7872538    17.944831   -24224.582    -2429.404 
     930    404.87895    1256.6275    8.9921475    8.9921475    17.945233          120    3912.2404   -3678.4664   -65138.308   -13538.328    -19872.41   -53965.812    8.9921475    7.7874282    17.945233   -21634.845   -2429.4732 
     940    410.77556    1256.6911    8.9922992    8.9922992    17.945535          120    6921.8667   -2057.8653   -61884.028   -14108.522   -20885.107   -54806.468    8.9922992    7.7875596    17.945535   -19006.676   -2429.5671 
     950    417.17607    1256.7365    8.9924073    8.9924074    17.945751          120    9837.4723   -286.78319   -58512.875   -14672.397    -21864.15   -55548.151    8.9924073    7.7876533    17.945751   -16320.729   -2429.6719 
     960    423.78759    1256.7661    8.9924781    8.9924781    17.945892          120    12721.638    1594.3082   -54973.822   -15140.092   -22872.141   -56270.402    8.9924781    7.7877145    17.945892   -13552.625   -2429.7753 
     970    430.29564    1256.7828    8.9925178    8.9925179    17.945972          120     15504.28    3613.3109   -51170.697     -15599.7   -23868.531   -56957.107    8.9925178     7.787749    17.945972   -10684.369   -2429.8632 
     980    436.38252    1256.7892    8.9925332    8.9925333    17.946002          120    18035.948    5548.8875   -47229.934   -16043.951   -24848.022   -57556.693    8.9925332    7.7877623    17.946002   -7881.6995   -2429.9758 
     990    441.72707    1256.7882    8.9925306    8.9925307    17.945997          120    20474.202    7503.2492    -42938.58    -16436.63   -25805.195   -58111.005    8.9925306      7.78776    17.945997   -4987.0429   -2430.0568 
SHAKE stats (type/ave/delta) on step 1000
  1 0.9572 1.8104e-09
  1 104.52 0
    1000    446.01334    1256.7823    8.9925167    8.9925168    17.945969          120    22754.044    9416.9954   -38466.448   -16764.769   -26741.293    -58668.48    8.9925167     7.787748    17.945969   -2098.4694   -2430.1246 
    1010    448.90228    1256.7745    8.9924981    8.9924982    17.945932          120    24827.565    11161.587   -33786.861   -17039.763   -27655.042   -59203.094    8.9924981    7.7877319    17.945932    734.09674    -2430.184 
    1020    450.09721    1256.7675    8.9924813    8.9924814    17.945899          120     26791.92    12757.384   -28891.465   -17264.279   -28460.072   -59755.507    8.9924813    7.7877173    17.945899    3552.6133   -2430.2153 
    1030    449.40349    1256.7639    8.9924728    8.9924729    17.945882          120    28615.002    14242.973   -23808.346   -17404.634   -29139.866   -60301.054    8.9924728      7.78771    17.945882    6349.8763   -2430.2118 
    1040    446.78395    1256.7665    8.9924789     8.992479    17.945894          120    30299.586    15510.123   -18624.813   -17487.007   -29692.449   -60807.356    8.9924789    7.7877153    17.945894    9061.6321    -2430.183 
    1050    442.40147    1256.7778    8.9925059     8.992506    17.945948          120    31814.765    16617.422   -13430.715    -17527.16   -30074.713   -61269.282    8.9925059    7.7877387    17.945948    11667.157   -2430.1263 
    1060    436.60774    1256.8004    8.9925597    8.9925598    17.946055          120    33217.861    17466.104   -8258.4876   -17488.669   -30334.858    -61693.81    8.9925597    7.7877853    17.946055    14141.826   -2430.0422 
    1070    429.88951    1256.8365     8.992646     8.992646    17.946227          120    34353.273    18101.713    -3275.949   -17401.545   -30371.644   -62087.257     8.992646    7.7878599    17.946227    16393.012   -2429.9555 
    1080    422.79073    1256.8884    8.9927697    8.9927698    17.946474          120    35250.695     18424.23    1447.1359   -17258.434   -30259.858   -62434.821    8.9927697    7.7879671    17.946474     18374.02   -2429.8726 
    1090    415.79396    1256.9579    8.9929355    8.9929356    17.946805          120    36007.963    18518.496    5847.6413   -17128.571   -30005.955   -62767.747    8.9929355    7.7881107    17.946805      20124.7   -2429.7779 
SHAKE stats (type/ave/delta) on step 1100
  1 0.957202 1.68317e-09
  1 104.52 0
    1100    409.21984    1257.0468    8.9931473    8.9931474    17.947228          120    36531.326    18340.917    9739.5988   -17039.665   -29654.374   -63186.679    8.9931473    7.7882941    17.947228     21537.28   -2429.7004 
    1110    403.11253    1257.1562    8.9934083    8.9934084    17.947749          120    36810.281    17840.961    13247.753   -16928.815    -29255.63   -63610.559    8.9934083    7.7885202    17.947749    22632.998   -2429.6356 
    1120     397.2389    1257.2873     8.993721    8.9937211    17.948373          120    36903.427    17139.613    16293.115   -16874.889   -28873.881   -64126.793     8.993721     7.788791    17.948373    23445.385   -2429.5735 
    1130     391.1807     1257.441    8.9940873    8.9940873    17.949104          120    36904.892    16307.187    18833.459   -16812.935   -28551.878   -64730.067    8.9940873    7.7891081    17.949104    24015.179   -2429.5034 
    1140    384.42294    1257.6176    8.9945083    8.9945084    17.949944          120    36865.453    15334.861    20983.038    -16771.79    -28236.61    -65339.64    8.9945083    7.7894728    17.949944     24394.45   -2429.4141 
    1150    376.53752    1257.8175     8.994985    8.9949851    17.950895          120    36794.656    14410.337     22765.39   -16789.754   -27999.596   -65978.128     8.994985    7.7898856    17.950895    24656.794   -2429.2829 
    1160    367.36644    1258.0411    8.9955179     8.995518    17.951959          120    36670.127    13238.724    24132.596   -16847.902   -27778.918   -66593.404    8.9955179    7.7903471    17.951959    24680.482   -2429.1596 
    1170    357.09494    1258.2883     8.996107    8.9961071    17.953135          120    36440.629    12154.834    25197.533   -16917.587   -27556.104   -67192.664     8.996107    7.7908573    17.953135    24597.666   -2429.0125 
    1180    346.27217     1258.559    8.9967521    8.9967522    17.954422          120    36184.326    10956.604    25950.699   -16944.947   -27328.589   -67798.813    8.9967521     7.791416    17.954422    24363.876   -2428.8659 
    1190    335.69266     1258.853    8.9974526    8.9974527     17.95582          120    35946.426    9829.2458    26386.824   -16984.173   -27039.275   -68354.251    8.9974526    7.7920226     17.95582    24054.165   -2428.7048 
SHAKE stats (type/ave/delta) on step 1200
  1 0.957208 4.13671e-09
  1 104.52 0
    1200    326.20579    1259.1699    8.9982077    8.9982078    17.957327          120    35518.562    8613.1418    26570.089   -16941.384    -26655.15   -68846.079    8.9982077    7.7926765    17.957327    23567.264   -2428.5711 
    1210    318.53633    1259.5094    8.9990163    8.9990163     17.95894          120    34986.462    7366.8568    26309.743   -16848.204   -26226.946   -69304.559    8.9990163    7.7933768     17.95894    22887.687   -2428.4786 
    1220    313.16713    1259.8707    8.9998767    8.9998768    17.960658          120    34331.129    6175.6672    25765.464   -16693.814   -25804.298    -69651.76    8.9998767     7.794122    17.960658    22090.753   -2428.4155 
    1230    310.32598    1260.2532    9.0007872    9.0007873    17.962475          120    33530.062     4952.843     24816.78   -16438.354   -25387.884   -69923.335    9.0007872    7.7949105    17.962475    21099.895   -2428.4083 
    1240    310.03563    1260.6557    9.0017455    9.0017455    17.964387          120    32604.436    3862.2336    23618.333   -16074.608   -24972.164   -70085.083    9.0017455    7.7957403    17.964387    20028.334   -2428.4313 
    1250    312.13364    1261.0774     9.002749    9.0027491     17.96639          120    31736.136    2886.0057    22048.326   -15639.812   -24616.086   -70109.264     9.002749    7.7966094     17.96639    18890.156   -2428.4843 
    1260    316.34515     1261.517    9.0037951    9.0037952    17.968477          120    30861.147    2006.7365    20171.073   -15093.873   -24357.412   -70026.778    9.0037951    7.7975154    17.968477    17679.652   -2428.5708 
    1270    322.31994    1261.9736    9.0048811    9.0048812    17.970645          120    30021.221     1090.226    17997.508   -14387.633   -24117.039   -69890.391    9.0048811    7.7984559    17.970645    16369.652   -2428.7047 
    1280    329.64126    1262.4457    9.0060039     9.006004    17.972885          120    29246.956    407.89645    15583.664   -13563.467   -23929.668    -69712.47    9.0060039    7.7994283    17.972885    15079.505   -2428.8387 
    1290    337.89439    1262.9321    9.0071605    9.0071605    17.975193          120    28493.127   -201.04397    12896.512   -12629.475   -23808.839    -69462.32    9.0071605    7.8004299    17.975193    13729.532   -2428.9985 
SHAKE stats (type/ave/delta) on step 1300
  1 0.957213 6.18729e-09
  1 104.52 0
    1300    346.62029    1263.4316    9.0083477    9.0083478    17.977563          120     27882.74   -754.07402     10052.39    -11611.23   -23702.333    -69275.21    9.0083477     7.801458    17.977563    12393.686   -2429.1531 
    1310    355.37649    1263.9428    9.0095625    9.0095626    17.979987          120    27346.984   -1258.6279    7052.0224   -10536.224   -23628.491   -69167.504    9.0095625    7.8025101    17.979987    11046.793   -2429.3033 
    1320    363.74614    1264.4644    9.0108018    9.0108019     17.98246          120    26808.586   -1840.0368    3860.9462   -9419.6686   -23604.318   -69090.844    9.0108018    7.8035833     17.98246    9609.8316   -2429.4666 
    1330     371.3493    1264.9951    9.0120622    9.0120623    17.984976          120    26327.995   -2341.0965    618.97115   -8304.3262   -23631.926   -69174.612    9.0120622    7.8046749    17.984976    8201.9564   -2429.5983 
    1340    377.89788    1265.5335    9.0133405    9.0133406    17.987527          120    25837.266   -2955.6176   -2737.1105   -7234.3572   -23722.225   -69297.405    9.0133405    7.8057819    17.987527    6714.8461   -2429.7266 
    1350    383.24411    1266.0781    9.0146332    9.0146333    17.990106          120    25356.059   -3523.7904   -6162.3109   -6244.1824   -23844.484   -69500.441    9.0146332    7.8069014    17.990106    5223.3194   -2429.8205 
    1360    387.41052    1266.6275    9.0159369     9.015937    17.992708          120    24750.578   -4092.4662   -9592.1653   -5404.4615    -24047.04    -69775.76    9.0159369    7.8080305    17.992708    3688.6489    -2429.895 
    1370    390.61366    1267.1801     9.017248     9.017248    17.995325          120    24064.862   -4742.7195   -13129.307   -4722.3261   -24244.402   -70076.711     9.017248    7.8091659    17.995325    2064.2788    -2429.959 
    1380     393.2071    1267.7344    9.0185626    9.0185627    17.997948          120    23272.024   -5519.6782   -16744.886   -4268.2189   -24461.917    -70399.07    9.0185626    7.8103044    17.997948    335.82002   -2430.0196 
    1390    395.61648    1268.2887    9.0198769    9.0198769    18.000571          120    22417.572   -6369.8581   -20420.981   -3934.4129   -24682.336   -70742.328    9.0198769    7.8114426    18.000571   -1457.7557   -2430.0677 
SHAKE stats (type/ave/delta) on step 1400
  1 0.957214 8.33988e-10
  1 104.52 0
    1400    398.20747    1268.8413    9.0211866    9.0211866    18.003185          120    21489.887   -7269.5132   -24107.352   -3750.1046   -24840.616   -71096.817    9.0211866    7.8125768    18.003185   -3295.6595   -2430.0974 
    1410    401.16815    1269.3902    9.0224874    9.0224874    18.005781          120    20527.089   -8522.0403   -27912.295    -3651.788    -24968.43   -71387.969    9.0224874    7.8137034    18.005781   -5302.4154   -2430.1564 
    1420    404.42992    1269.9337    9.0237747    9.0237747     18.00835          120    19381.394   -9846.7984   -31785.574   -3729.5685   -24964.911   -71553.881    9.0237747    7.8148182     18.00835   -7416.9927   -2430.2263 
    1430    407.66483    1270.4695    9.0250436    9.0250436    18.010882          120    18203.085   -11207.018   -35689.185   -3918.8056   -24844.837   -71608.238    9.0250436    7.8159171    18.010882   -9564.3729    -2430.291 
    1440    410.35715    1270.9955     9.026289    9.0262891    18.013367          120    16975.574   -12709.772   -39593.726   -4224.5647   -24619.582   -71469.099     9.026289    7.8169957    18.013367   -11775.975   -2430.3634 
    1450    411.94256    1271.5097     9.027506     9.027506    18.015796          120    15891.995   -14241.873   -43444.198   -4579.1517   -24309.873   -71150.469     9.027506    7.8180496    18.015796   -13931.359    -2430.412 
    1460    411.92498    1272.0098    9.0286894    9.0286895    18.018158          120    14910.101   -15699.863   -47128.253   -5005.9564   -23948.557   -70637.117    9.0286894    7.8190745    18.018158   -15972.672    -2430.425 
    1470    409.95511    1272.4938    9.0298345    9.0298346    18.020443          120    14147.467   -17067.879    -50604.27   -5503.1644   -23555.349   -69954.317    9.0298345    7.8200662    18.020443   -17841.561   -2430.3917 
    1480     405.9339      1272.96     9.030937    9.0309371    18.022643          120    13468.476   -18340.705   -54002.559   -5985.3294   -23222.839   -69091.348     9.030937     7.821021    18.022643    -19624.93   -2430.3475 
    1490    400.01966    1273.4065    9.0319928    9.0319929     18.02475          120    12980.588    -19532.39   -57086.921   -6514.0194   -22916.666   -68028.606    9.0319928    7.8219353     18.02475   -21212.907   -2430.2667 
SHAKE stats (type/ave/delta) on step 1500
  1 0.95721 2.90712e-09
  1 104.52 0
    1500    392.66328    1273.8317    9.0329981    9.0329982    18.026756          120    12669.045   -20587.342   -60028.745   -7001.8352   -22716.822   -66931.416    9.0329981    7.8228059    18.026756   -22649.014   -2430.1704 
    1510    384.57777    1274.2343    9.0339496    9.0339497    18.028655          120    12543.719   -21482.235   -62641.136   -7526.0717    -22600.04   -65771.955    9.0339496    7.8236299    18.028655   -23859.884   -2430.0452 
    1520    376.65355     1274.613    9.0348445    9.0348446    18.030441          120     12478.52   -22249.806   -64967.096    -7931.335   -22517.821   -64633.162    9.0348445    7.8244049    18.030441   -24912.794   -2429.9219 
    1530    369.74789    1274.9668    9.0356803    9.0356804    18.032109          120    12414.961   -22897.093   -67131.215   -8222.7055   -22486.429   -63470.311    9.0356803    7.8251288    18.032109   -25871.116   -2429.8309 
    1540    364.51058    1275.2948     9.036455     9.036455    18.033655          120    12343.018   -23370.646   -69088.377   -8360.4421   -22463.469   -62380.151     9.036455    7.8257996    18.033655   -26705.335   -2429.7665 
    1550    361.26306     1275.596    9.0371665    9.0371665    18.035075          120    12242.519   -23642.073   -70825.592   -8411.7338   -22449.083   -61383.279    9.0371665    7.8264158    18.035075   -27408.382   -2429.7342 
    1560    359.92818    1275.8699    9.0378132    9.0378133    18.036366          120     12096.45   -23668.149   -72443.185   -8249.8832   -22406.084   -60462.709    9.0378132    7.8269759    18.036366   -28004.962   -2429.7391 
    1570    360.05277    1276.1158    9.0383939    9.0383939    18.037524          120    11984.523   -23422.283       -73783   -7960.7091   -22306.507   -59696.269    9.0383939    7.8274788    18.037524    -28406.92   -2429.7535 
    1580     360.9541    1276.3334    9.0389075    9.0389076     18.03855          120    11929.458   -22946.752   -74904.688   -7602.8865   -22201.965   -59031.124    9.0389075    7.8279236     18.03855   -28640.661   -2429.7814 
    1590    361.85345    1276.5224    9.0393538    9.0393538     18.03944          120    11896.455    -22196.45   -75783.997   -7189.0448   -22147.346   -58526.315    9.0393538    7.8283101     18.03944   -28694.664   -2429.8138 
SHAKE stats (type/ave/delta) on step 1600
  1 0.957204 2.96323e-09
  1 104.52 0
    1600    362.08337    1276.6829    9.0397325    9.0397326    18.040196          120    11944.196    -21121.14    -76373.06    -6809.343   -22222.911   -58125.809    9.0397325    7.8286381    18.040196   -28516.668   -2429.8254 
    1610    361.28345     1276.815    9.0400442    9.0400442    18.040818          120     12171.38   -19903.306   -76748.776   -6498.5744   -22372.595   -57841.792    9.0400442     7.828908    18.040818   -28160.234   -2429.8251 
    1620    359.50628     1276.919    9.0402897    9.0402898    18.041308          120    12510.309   -18519.575   -76946.602   -6265.2649   -22609.825   -57683.476    9.0402897    7.8291206    18.041308   -27651.956   -2429.8176 
    1630    357.15854    1276.9956    9.0404704    9.0404704    18.041668          120    12981.878   -16911.876   -77104.764   -6180.2083   -22914.379   -57554.856    9.0404704    7.8292771    18.041668   -27011.587   -2429.7981 
    1640    354.83053    1277.0453    9.0405877    9.0405878    18.041903          120    13509.346   -15276.299   -77074.416   -6110.3476   -23230.164   -57512.023    9.0405877    7.8293787    18.041903   -26280.456   -2429.7789 
    1650    353.04897    1277.0689    9.0406435    9.0406435    18.042014          120    14033.189   -13519.392    -77025.02   -6090.1962   -23498.283   -57477.894    9.0406435     7.829427    18.042014   -25503.741   -2429.7681 
    1660    352.12374    1277.0673    9.0406396    9.0406397    18.042006          120    14574.917   -11669.227   -76916.429   -6081.4246    -23691.43   -57420.122    9.0406396    7.8294236    18.042006   -24670.247   -2429.7581 
    1670    352.08296    1277.0412     9.040578    9.0405781    18.041883          120    15078.323   -9779.6482   -76781.102   -6041.6721   -23856.039   -57296.776     9.040578    7.8293703    18.041883   -23827.476   -2429.7592 
    1680    352.66259    1276.9915    9.0404609     9.040461     18.04165          120    15446.993   -7870.8404   -76658.372   -6016.2091     -23882.1   -57112.592    9.0404609    7.8292689     18.04165   -23027.407   -2429.7844 
    1690    353.42984    1276.9191      9.04029    9.0402901    18.041309          120    15761.557   -5955.3386   -76469.061   -5920.7076   -23815.123   -56759.138      9.04029    7.8291209    18.041309   -22220.947    -2429.812 
SHAKE stats (type/ave/delta) on step 1700
  1 0.957197 6.10453e-10
  1 104.52 0
    1700     353.9199    1276.8248    9.0400674    9.0400675    18.040864          120    16024.437   -4170.3627   -76195.206   -5721.8973   -23660.357   -56293.779    9.0400674    7.8289281    18.040864   -21447.044   -2429.8536 
    1710    353.77651    1276.7094     9.039795    9.0397951    18.040321          120    16365.845   -2313.2077   -75769.311   -5454.3465   -23441.388    -55712.57     9.039795    7.8286922    18.040321   -20572.225   -2429.8657 
    1720    352.87513    1276.5738    9.0394749     9.039475    18.039682          120    16773.095   -497.15022   -75214.605    -5110.987   -23170.962   -55013.551    9.0394749     7.828415    18.039682    -19646.22   -2429.8652 
    1730    351.34463    1276.4189    9.0391093    9.0391094    18.038952          120    17316.464    1227.3871   -74495.051   -4684.3165   -22839.452   -54233.328    9.0391093    7.8280984    18.038952     -18650.4   -2429.8519 
    1740    349.52078    1276.2458    9.0387006    9.0387007    18.038137          120    17892.835    2841.2529    -73618.56   -4148.8967   -22523.486   -53416.937    9.0387006    7.8277444    18.038137   -17628.158   -2429.8463 
    1750    347.83534    1276.0554    9.0382513    9.0382514     18.03724          120    18564.979    4275.3981   -72541.745   -3549.7579   -22271.547   -52541.688    9.0382513    7.8273553     18.03724   -16567.123    -2429.851 
    1760     346.7013     1275.849    9.0377639    9.0377639    18.036267          120    19357.463    5594.5977   -71160.511   -2936.1005   -22038.527    -51643.59    9.0377639    7.8269332    18.036267   -15402.817   -2429.8546 
    1770    346.41293    1275.6276    9.0372411    9.0372412    18.035224          120    20216.702    6725.2567   -69442.576   -2379.1694   -21820.429   -50744.505    9.0372411    7.8264805    18.035224   -14166.872   -2429.8713 
    1780    347.09436    1275.3926     9.036686     9.036686    18.034116          120    21161.777    7640.9657    -67341.38   -1826.4883   -21625.421   -49936.034     9.036686    7.8259997    18.034116   -12846.213   -2429.9021 
    1790    348.68119    1275.1451    9.0361016    9.0361017     18.03295          120     22178.74    8439.2661   -64838.607   -1287.2858   -21498.586   -49154.978    9.0361016    7.8254936     18.03295   -11406.867   -2429.9361 
SHAKE stats (type/ave/delta) on step 1800
  1 0.957193 6.08398e-09
  1 104.52 0
    1800    350.98324    1274.8868    9.0354914    9.0354915    18.031732          120    23265.308    9181.0047   -61965.992   -812.19696    -21422.87   -48415.325    9.0354914    7.8249652    18.031732   -9839.8933   -2429.9711 
    1810    353.75707    1274.6192     9.034859    9.0348591     18.03047          120    24258.271    9699.3096   -58777.581   -378.32559   -21391.148   -47836.302     9.034859    7.8244175     18.03047   -8273.3333   -2430.0426 
    1820     356.8094    1274.3438    9.0342083    9.0342083    18.029171          120    25262.874    10100.063    -55229.38    2.8005349   -21480.036   -47357.602    9.0342083    7.8238539    18.029171   -6622.1478   -2430.1134 
    1830    360.03836    1274.0622    9.0335429     9.033543    18.027844          120    26201.776    10453.773    -51346.56    282.83852   -21687.716   -47001.149    9.0335429    7.8232777    18.027844   -4897.0038   -2430.1815 
    1840    363.42538    1273.7763    9.0328671    9.0328672    18.026495          120    27061.138    10672.629   -47192.333    560.36072   -22016.962   -46798.572    9.0328671    7.8226924    18.026495   -3152.8553   -2430.2525 
    1850    367.02298    1273.4877    9.0321848    9.0321849    18.025133          120     27844.56     10782.19   -42963.272    794.66343   -22413.505   -46722.024    9.0321848    7.8221016    18.025133   -1445.5073   -2430.3326 
    1860    370.89511    1273.1981    9.0315001    9.0315002    18.023767          120    28493.437     10801.25   -38569.408    1002.3165   -22983.708   -46818.051    9.0315001    7.8215086    18.023767    241.75957   -2430.4075 
    1870    375.06607    1272.9092    9.0308169     9.030817    18.022403          120    29044.915    10726.851   -34208.379    1201.2034    -23609.38    -47023.48    9.0308169    7.8209169    18.022403    1854.4622   -2430.4866 
    1880    379.46585    1272.6225     9.030139    9.0301391    18.021051          120    29445.935    10668.569   -29988.756    1400.6527   -24305.069   -47378.045     9.030139    7.8203299    18.021051    3375.2491   -2430.5685 
    1890    383.90972    1272.3397    9.0294699      9.02947    18.019715          120    29739.644    10612.797   -25999.323    1614.6654   -24954.746   -47763.255    9.0294699    7.8197504    18.019715    4784.3726   -2430.6554 
SHAKE stats (type/ave/delta) on step 1900
  1 0.957193 7.10622e-09
  1 104.52 0
    1900    388.11582    1272.0619    9.0288128    9.0288129    18.018404          120    29994.336    10526.401   -22216.553    1802.7848   -25593.561   -48259.952    9.0288128    7.8191814    18.018404    6101.3945   -2430.7365 
    1910    391.74146    1271.7906    9.0281709     9.028171    18.017123          120    30254.766    10664.611   -18749.343    2061.5331   -26110.051   -48781.347    9.0281709    7.8186254    18.017123    7390.0113   -2430.7948 
    1920    394.48155     1271.527    9.0275471    9.0275472    18.015878          120    30588.575    10827.725   -15542.861    2294.5048   -26464.189   -49301.294    9.0275471    7.8180852    18.015878    8624.4796   -2430.8403 
    1930    396.10864    1271.2723    9.0269443    9.0269443    18.014675          120     30904.39    11124.425   -12624.542    2516.9538   -26606.205   -49794.869    9.0269443    7.8175631    18.014675    9801.4241   -2430.8806 
    1940    396.54808    1271.0276    9.0263651    9.0263652    18.013519          120    31315.374    11525.528   -9921.3749    2738.4655   -26521.882    -50189.84    9.0263651    7.8170615    18.013519    10973.176   -2430.9035 
    1950     395.9186    1270.7941    9.0258122    9.0258123    18.012416          120    31838.137    11948.702   -7378.5641    2960.1872   -26194.165   -50500.688    9.0258122    7.8165828    18.012416    12136.091   -2430.9168 
    1960    394.48852    1270.5728    9.0252884    9.0252885     18.01137          120    32526.999    12449.071   -4949.6838    3057.6872   -25719.966   -50662.113    9.0252884    7.8161291     18.01137    13342.129   -2430.9101 
    1970    392.61011     1270.365    9.0247963    9.0247964    18.010388          120    33281.316     13023.86   -2670.7366    3142.6856   -25037.282    -50695.39    9.0247963     7.815703    18.010388    14544.813   -2430.8998 
    1980    390.61651    1270.1718    9.0243388    9.0243388    18.009475          120     34111.66    13556.596    -392.0767    3138.0337   -24270.035   -50543.046    9.0243388    7.8153067    18.009475    15758.726   -2430.8856 
    1990    388.73206    1269.9944    9.0239185    9.0239186    18.008637          120    35032.333    14069.084    1866.0453    3053.4393   -23436.846   -50184.127    9.0239185    7.8149428    18.008637    16989.154   -2430.8637 
SHAKE stats (type/ave/delta) on step 2000
  1 0.957196 4.13737e-09
  1 104.52 0
    2000    386.99606    1269.8339    9.0235384    9.0235384    18.007878          120    35990.082    14464.008     4108.109    2949.2791   -22560.471   -49598.093    9.0235384    7.8146135    18.007878      18187.4   -2430.8511 
    2010    385.25593    1269.6915     9.023201    9.0232011    18.007205          120    36955.162    14718.564    6288.9841    2895.3316   -21743.092   -48922.649     9.023201    7.8143214    18.007205    19320.903    -2430.859 
    2020    383.22962    1269.5682    9.0229091    9.0229092    18.006622          120     37973.51    14931.143    8610.2711    2751.5444   -20951.865    -47910.13    9.0229091    7.8140686    18.006622    20504.975   -2430.8441 
    2030    380.59835    1269.4653    9.0226652    9.0226652    18.006135          120    38811.963    15136.796    11023.198    2590.3293   -20283.316   -46767.347    9.0226652    7.8138573    18.006135    21657.319   -2430.8352 
    2040    377.07366    1269.3837     9.022472     9.022472     18.00575          120    39700.907    15374.266    13611.412    2429.6947   -19676.043   -45478.711     9.022472      7.81369     18.00575    22895.528   -2430.7935 
    2050    372.52003    1269.3248    9.0223322    9.0223323    18.005471          120    40524.038    15583.598    16260.201    2306.1623   -19214.399    -44105.31    9.0223322     7.813569    18.005471    24122.612   -2430.7452 
    2060    366.97768    1269.2895    9.0222487    9.0222488    18.005304          120    41280.749    15826.703    18993.542    2187.0244    -18814.11     -42609.7    9.0222487    7.8134967    18.005304    25366.998   -2430.6771 
    2070    360.66292    1269.2792    9.0222244    9.0222245    18.005256          120    41889.664    16088.572    21752.558    2085.7762   -18526.727   -41094.013    9.0222244    7.8134756    18.005256    26576.931   -2430.6011 
    2080    353.99241    1269.2951    9.0222618    9.0222619    18.005331          120    42369.601    16355.218    24446.459    2014.3361   -18351.248   -39617.212    9.0222618     7.813508    18.005331    27723.759   -2430.5151 
    2090    347.52402     1269.338    9.0223637    9.0223638    18.005534          120    42627.464    16580.498    26899.325    1878.9613   -18259.784   -38181.086    9.0223637    7.8135962    18.005534    28702.429   -2430.4412 
SHAKE stats (type/ave/delta) on step 2100
  1 0.957202 4.55103e-09
  1 104.52 0
    2100     341.8696    1269.4091    9.0225321    9.0225322     18.00587          120    42680.361    16687.992    29039.215    1775.0329   -18226.082   -36833.982    9.0225321    7.8137421     18.00587    29469.189   -2430.3829 
    2110    337.57693    1269.5091    9.0227689    9.0227689    18.006342          120    42542.025    16774.767    30768.736    1648.8371   -18277.094   -35639.067    9.0227689    7.8139471    18.006342    30028.509   -2430.3252 
    2120    335.02608    1269.6383     9.023075    9.0230751    18.006953          120    42112.454    16603.674    31802.837    1461.8467    -18391.46   -34636.321     9.023075    7.8142123    18.006953    30172.988   -2430.3238 
    2130    334.35846     1269.797     9.023451    9.0234511    18.007704          120    41317.654    16543.582    32145.684    1261.9734   -18496.853   -33800.425     9.023451    7.8145379    18.007704    30002.307   -2430.3321 
    2140    335.42535     1269.985    9.0238962    9.0238963    18.008592          120    40225.509    16268.331    31773.155     995.8382    -18619.43   -33161.703    9.0238962    7.8149234    18.008592    29422.332   -2430.3781 
    2150    337.81295    1270.2016    9.0244093    9.0244094    18.009616          120    38834.301    16038.022    30695.472    698.07725   -18701.197   -32698.915    9.0244093    7.8153678    18.009616    28522.598   -2430.4298 
    2160    340.97984    1270.4461    9.0249882    9.0249883    18.010771          120    37152.149    15735.698     28977.77    329.17282   -18683.507   -32430.205    9.0249882    7.8158691    18.010771    27288.539   -2430.4919 
    2170    344.36847    1270.7171    9.0256299      9.02563    18.012052          120    35159.589    15406.352    26674.988     41.73847   -18580.273   -32373.625    9.0256299    7.8164249    18.012052    25746.976    -2430.557 
    2180    347.55726    1271.0131    9.0263308    9.0263308    18.013451          120    32962.144    15013.874    23764.743   -258.69153   -18394.403   -32462.665    9.0263308    7.8170318    18.013451    23913.587   -2430.6332 
    2190       350.28    1271.3324    9.0270865    9.0270866    18.014959          120    30630.069    14569.059    20424.534   -502.25581    -18058.06   -32681.103    9.0270865    7.8176863    18.014959    21874.554   -2430.6995 
SHAKE stats (type/ave/delta) on step 2200
  1 0.957209 3.92261e-09
  1 104.52 0
    2200    352.53445    1271.6729    9.0278924    9.0278924    18.016567          120    28232.676    14124.755    16776.171   -675.77351   -17603.747   -32968.334    9.0278924    7.8183842    18.016567    19711.201   -2430.7487 
    2210    354.55259    1272.0325    9.0287433    9.0287434    18.018265          120    25685.687    13680.328    12865.261   -756.87926   -16997.528    -33280.95    9.0287433    7.8191211    18.018265    17410.425    -2430.797 
    2220    356.69182     1272.409    9.0296339     9.029634    18.020043          120    23130.376    13113.628    8785.4471   -768.29049   -16308.186    -33598.34    9.0296339    7.8198924    18.020043    15009.817   -2430.8506 
    2230    359.30697       1272.8    9.0305586    9.0305587    18.021888          120    20534.219    12507.189    4638.3139   -708.13534   -15479.031   -33850.894    9.0305586    7.8206933    18.021888    12559.907   -2430.9151 
    2240    362.69055     1273.203    9.0315117    9.0315117     18.02379          120    17928.478    11812.713    531.99345   -639.25759   -14590.427   -34006.529    9.0315117    7.8215186     18.02379    10091.062   -2430.9962 
    2250    366.98298    1273.6156    9.0324873    9.0324874    18.025737          120    15363.293    11116.499   -3502.1231   -502.14986   -13745.783   -34025.082    9.0324873    7.8223635    18.025737    7659.2231   -2431.0914 
    2260    372.13298    1274.0356    9.0334798    9.0334799    18.027718          120    13032.935    10443.134    -7345.176   -397.59432   -12844.711   -33982.869    9.0334798    7.8232231    18.027718    5376.9644   -2431.1788 
    2270    377.92837    1274.4604    9.0344839     9.034484    18.029722          120    10802.436    9713.0655   -11010.732   -302.85387   -11971.479   -33850.391    9.0344839    7.8240927    18.029722    3168.2566   -2431.2901 
    2280    384.08119    1274.8881    9.0354945    9.0354945    18.031738          120    8835.0356    9029.6382   -14418.488   -266.26006   -11195.775   -33684.696    9.0354945    7.8249678    18.031738    1148.7284   -2431.3943 
    2290    390.24972    1275.3166    9.0365067    9.0365067    18.033758          120     6980.643    8322.0494   -17500.927   -302.17819   -10537.873   -33475.176    9.0365067    7.8258444    18.033758   -732.74482   -2431.5105 
SHAKE stats (type/ave/delta) on step 2300
  1 0.957211 4.71656e-09
  1 104.52 0
    2300    396.07217    1275.7441    9.0375162    9.0375162    18.035773          120    5307.6869     7617.382   -20316.269   -363.02823   -10044.223   -33228.452    9.0375162    7.8267187    18.035773   -2463.7335   -2431.6318 
    2310    401.19853    1276.1688    9.0385189     9.038519    18.037774          120    3871.6846    6953.5535   -22805.212    -537.4768   -9687.8281   -33036.648    9.0385189    7.8275871    18.037774   -3993.3246    -2431.733 
    2320    405.31237    1276.5892    9.0395113    9.0395114    18.039755          120    2613.6292    6275.6998   -25062.092   -790.62959   -9462.3678   -32863.223    9.0395113    7.8284465    18.039755   -5390.9209   -2431.8253 
    2330    408.19457    1277.0039    9.0404901    9.0404902    18.041708          120    1545.8148    5624.9161   -27114.223   -1117.5519   -9364.2389    -32725.08    9.0404901    7.8292942    18.041708   -6647.8306    -2431.895 
    2340    409.75726    1277.4118    9.0414524    9.0414525    18.043628          120    675.98293    4912.2721   -28986.657   -1493.4996   -9364.5893    -32572.22    9.0414524    7.8301276    18.043628   -7799.4674   -2431.9382 
    2350    410.03872    1277.8115    9.0423954    9.0423955     18.04551          120    -80.74831    4151.3497    -30838.65   -1892.8004   -9481.0609   -32422.839    9.0423954    7.8309442     18.04551   -8922.6828   -2431.9703 
    2360    409.14123     1278.202    9.0433165    9.0433166    18.047348          120   -750.98796    3323.9634   -32735.211    -2286.619   -9705.3743   -32207.172    9.0433165    7.8317419    18.047348   -10054.079   -2431.9875 
    2370      407.172    1278.5822    9.0442131    9.0442131    18.049138          120   -1307.6322    2469.3924   -34801.183   -2699.0712   -9985.3927   -31993.511    9.0442131    7.8325183    18.049138   -11213.141   -2431.9887 
    2380    404.18138    1278.9509    9.0450824    9.0450824    18.050872          120   -1777.5768    1619.4567   -36906.556   -3120.6522    -10347.81    -31728.54    9.0450824    7.8332712    18.050872   -12354.892   -2431.9552 
    2390    400.19722     1279.307    9.0459218    9.0459218    18.052548          120   -2208.0863    719.24749   -39216.233   -3548.7897   -10802.856   -31547.452    9.0459218    7.8339981    18.052548   -13568.357   -2431.9133 
SHAKE stats (type/ave/delta) on step 2400
  1 0.957208 4.68792e-09
  1 104.52 0
    2400     395.3071    1279.6493    9.0467285    9.0467285    18.054157          120    -2630.811   -117.00675   -41709.897   -3937.6631   -11212.951   -31397.424    9.0467285    7.8346967    18.054157   -14819.238   -2431.8546 
    2410    389.75027    1279.9765    9.0474995    9.0474996    18.055696          120   -3106.4559   -843.64937   -44341.712   -4300.4634   -11676.932   -31290.495    9.0474995    7.8353645    18.055696   -16097.272   -2431.7868 
    2420    383.95233    1280.2874    9.0482319     9.048232    18.057158          120   -3622.6457    -1607.255   -47065.476   -4651.4141   -12203.501   -31208.407    9.0482319    7.8359988    18.057158   -17431.792   -2431.7277 
    2430    378.43756    1280.5806    9.0489226    9.0489227    18.058536          120   -4207.1988   -2303.3575   -49830.791   -4987.7676   -12760.932    -31190.51    9.0489226    7.8365969    18.058536   -18780.449   -2431.6731 
    2440    373.72374    1280.8549    9.0495685    9.0495686    18.059825          120   -4812.5453   -2978.6885   -52548.487   -5233.5625   -13327.255   -31156.115    9.0495685    7.8371563    18.059825    -20113.24    -2431.631 
    2450     370.1459    1281.1088    9.0501664    9.0501665    18.061018          120   -5505.8871    -3524.649    -55141.81   -5492.0142   -13900.475   -31092.037    9.0501664    7.8376741    18.061018   -21390.782   -2431.5996 
    2460    367.74137    1281.3411    9.0507135    9.0507135     18.06211          120   -6173.3536   -3980.3756   -57582.062   -5708.5304   -14472.176   -30974.412    9.0507135    7.8381479     18.06211   -22578.597   -2431.5784 
    2470    366.23296    1281.5507    9.0512068    9.0512069    18.063095          120   -6830.7234   -4362.3534   -59863.503   -5872.4876   -15007.772   -30845.156    9.0512068    7.8385751    18.063095   -23685.527   -2431.5778 
    2480     365.1246    1281.7364     9.051644    9.0516441    18.063967          120   -7430.3632   -4659.9605   -61879.516   -6026.7103   -15527.871   -30641.373     9.051644    7.8389538    18.063967   -24656.613   -2431.5846 
    2490    363.84465    1281.8973    9.0520228    9.0520229    18.064723          120   -7977.5162   -4791.8234    -63543.71    -6161.671   -15915.347   -30409.364    9.0520228    7.8392818    18.064723   -25437.683   -2431.5879 
SHAKE stats (type/ave/delta) on step 2500
  1 0.957203 2.90173e-10
  1 104.52 0
    2500    361.91265    1282.0327    9.0523414    9.0523415    18.065359          120   -8500.7638   -4846.4609   -64800.929   -6284.4649   -16223.608   -30192.272    9.0523414    7.8395577    18.065359   -26049.385   -2431.5959 
    2510    359.07622    1282.1419    9.0525985    9.0525986    18.065872          120   -8800.5919   -4709.9702   -65593.502   -6473.8019    -16424.87   -29977.691    9.0525985    7.8397804    18.065872   -26368.021   -2431.5721 
    2520    355.36177    1282.2247    9.0527934    9.0527934    18.066261          120   -8967.1773   -4383.1455   -66011.302   -6660.1692   -16524.852   -29699.617    9.0527934    7.8399491    18.066261   -26453.875   -2431.5381 
    2530    351.08102     1282.281    9.0529259    9.0529259    18.066525          120   -8941.7537   -3903.2081   -66058.689   -6837.2091    -16621.33   -29325.586    9.0529259    7.8400639    18.066525   -26301.217   -2431.4969 
    2540    346.74847     1282.311    9.0529964    9.0529965    18.066666          120   -8815.0224     -3367.24   -65694.755   -7061.9186   -16608.375   -28933.711    9.0529964     7.840125    18.066666   -25959.006   -2431.4657 
    2550    342.96382     1282.315    9.0530059     9.053006    18.066685          120   -8520.5718   -2703.3468   -65024.356   -7326.8125    -16533.49     -28458.2    9.0530059    7.8401332    18.066685   -25416.092   -2431.4395 
    2560     340.2974    1282.2937    9.0529557    9.0529558    18.066585          120   -8014.9017   -1816.0921    -64141.03    -7624.208   -16420.084   -27914.573    9.0529557    7.8400897    18.066585   -24657.341    -2431.415 
    2570    339.15827    1282.2477    9.0528476    9.0528477    18.066369          120   -7484.5234   -978.40621    -63032.31    -7925.825   -16218.666   -27237.767    9.0528476    7.8399961    18.066369   -23831.747   -2431.4361 
    2580    339.67359    1282.1781    9.0526836    9.0526837    18.066042          120   -6845.2115   -25.647185   -61779.945   -8248.5271   -15970.673   -26402.852    9.0526836    7.8398541    18.066042   -22883.601   -2431.4808 
    2590    341.71301    1282.0857    9.0524662    9.0524663    18.065608          120   -6061.9292     995.0919   -60507.112    -8537.792   -15658.602   -25476.438    9.0524662    7.8396658    18.065608   -21857.983   -2431.5551 
SHAKE stats (type/ave/delta) on step 2600
  1 0.957197 4.94824e-09
  1 104.52 0
    2600    344.90703    1281.9716    9.0521977    9.0521978    18.065072          120   -5078.5306    2215.2934   -59068.282   -8865.3496   -15234.267   -24392.111    9.0521977    7.8394333    18.065072    -20643.84   -2431.6174 
    2610    348.73215    1281.8371    9.0518811    9.0518811     18.06444          120   -3992.5458      3470.76    -57589.98   -9180.0674   -14797.218   -23223.373    9.0518811     7.839159     18.06444   -19370.589   -2431.7009 
    2620    352.63467    1281.6834    9.0515194    9.0515195    18.063719          120   -2733.3147    4922.1131   -56024.737   -9443.1743   -14361.758    -21935.77    9.0515194    7.8388458    18.063719   -17945.313   -2431.7603 
    2630    356.14948    1281.5121    9.0511161    9.0511161    18.062914          120   -1422.4447    6354.6001   -54385.429   -9680.2485   -13840.873   -20561.784    9.0511161    7.8384965    18.062914   -16484.425   -2431.8325 
    2640    359.00445    1281.3246    9.0506746    9.0506746    18.062033          120   -30.719142    7811.1644   -52727.071   -9881.0897   -13307.882   -19180.084    9.0506746    7.8381142    18.062033   -14982.208   -2431.9033 
    2650     361.1522    1281.1224    9.0501985    9.0501986    18.061083          120    1444.7491    9261.0421   -51054.194   -10057.249   -12776.374   -17813.872    9.0501985    7.8377019    18.061083   -13449.468   -2431.9702 
    2660    362.76948    1280.9071    9.0496916    9.0496916    18.060071          120    2955.6991    10771.199   -49306.275   -10218.334   -12325.732    -16463.07    9.0496916    7.8372629    18.060071   -11859.792   -2432.0209 
    2670    364.18316    1280.6804    9.0491575    9.0491576    18.059005          120    4572.7713    12171.941   -47514.714   -10374.303   -11920.873   -15118.698    9.0491575    7.8368003    18.059005   -10256.667   -2432.0643 
    2680    365.74482    1280.4437    9.0486001    9.0486002    18.057893          120    6222.5512    13611.374   -45791.995   -10561.871   -11620.317   -13831.548    9.0486001    7.8363176    18.057893   -8652.6897    -2432.103 
    2690    367.74425    1280.1988    9.0480232    9.0480233    18.056741          120    7873.8044    14892.059   -44134.681   -10751.024   -11449.666   -12621.441    9.0480232     7.835818    18.056741   -7122.9394   -2432.1591 
SHAKE stats (type/ave/delta) on step 2700
  1 0.957194 4.52292e-10
  1 104.52 0
    2700     370.3533    1279.9472    9.0474304    9.0474305    18.055558          120    9533.0157    16143.908   -42515.116   -10994.001   -11361.604   -11548.957    9.0474304    7.8353047    18.055558   -5612.7309   -2432.2116 
    2710    373.59063    1279.6904    9.0468253    9.0468254    18.054351          120    11076.255    17260.705   -41036.081   -11258.071   -11407.912   -10458.606    9.0468253    7.8347806    18.054351   -4233.0401   -2432.2935 
    2720    377.33898    1279.4298    9.0462112    9.0462112    18.053125          120    12525.315    18397.275   -39646.041   -11443.363   -11525.352   -9500.4709    9.0462112    7.8342488    18.053125   -2907.8173   -2432.3774 
    2730    381.42748    1279.1668    9.0455911    9.0455912    18.051888          120     13911.55    19526.953   -38339.858   -11642.836   -11703.538    -8681.764    9.0455911    7.8337118    18.051888   -1633.7851   -2432.4609 
    2740    385.66082    1278.9025    9.0449681    9.0449682    18.050644          120     15136.87    20579.458   -37140.348   -11783.595   -11861.181   -7943.5081    9.0449681    7.8331723    18.050644   -474.67289   -2432.5607 
    2750     389.8345    1278.6382    9.0443449     9.044345    18.049401          120     16158.87    21672.766   -35980.617   -11856.039   -11872.288   -7372.4567    9.0443449    7.8326326    18.049401    617.00631   -2432.6598 
    2760    393.76348    1278.3749    9.0437241    9.0437242    18.048162          120    17028.379    22947.348   -34901.474   -11882.329   -11768.828   -6923.2402    9.0437241    7.8320949    18.048162    1691.4176   -2432.7418 
    2770    397.21634    1278.1137    9.0431082    9.0431082    18.046933          120    17646.415    24192.679   -33785.948   -11839.991   -11540.657   -6635.9517    9.0431082    7.8315615    18.046933    2684.3821    -2432.827 
    2780    399.91763    1277.8556    9.0424994    9.0424995    18.045718          120    18034.572     25554.07   -32686.827   -11686.656   -11175.955   -6478.6265    9.0424994    7.8310343    18.045718    3633.9384   -2432.8997 
    2790    401.55043    1277.6015    9.0419001    9.0419001    18.044522          120    18235.221    26930.957   -31541.796   -11469.057   -10642.541   -6516.9769    9.0419001    7.8305152    18.044522    4541.4606   -2432.9607 
SHAKE stats (type/ave/delta) on step 2800
  1 0.957194 2.17895e-09
  1 104.52 0
    2800    401.85095    1277.3524    9.0413123    9.0413124    18.043349          120    18304.616     28427.38   -30312.248   -11219.721   -9976.4558   -6710.4369    9.0413123    7.8300062    18.043349    5473.2494   -2432.9888 
    2810    400.67257    1277.1091    9.0407382    9.0407383    18.042203          120    18225.621    29933.117   -29025.139   -10866.686   -9217.4268   -6992.5819    9.0407382     7.829509    18.042203    6377.8663   -2432.9991 
    2820     398.0488    1276.8725    9.0401799      9.04018    18.041089          120    18000.739    31455.394   -27701.969    -10479.96   -8437.7443   -7406.5309    9.0401799    7.8290255    18.041089    7251.3884   -2432.9925 
    2830    394.22873    1276.6435    9.0396394    9.0396395     18.04001          120    17689.973    32922.174   -26398.124   -10085.687    -7619.242    -7962.831    9.0396394    7.8285575     18.04001    8071.3411   -2432.9754 
    2840    389.60162    1276.4228    9.0391186    9.0391187    18.038971          120    17359.262     34309.79    -25103.51   -9668.1568   -6845.2214   -8632.2432    9.0391186    7.8281065    18.038971    8855.1807   -2432.9407 
    2850    384.60642    1276.2113    9.0386193    9.0386194    18.037974          120    16985.974    35668.391   -24114.113   -9198.3674   -6119.8204   -9388.1032    9.0386193     7.827674    18.037974    9513.4173   -2432.9204 
    2860    379.61342    1276.0096     9.038143    9.0381431    18.037024          120    16742.934    36938.449   -23075.269   -8718.9125    -5465.548   -10228.743     9.038143    7.8272615    18.037024    10202.038   -2432.8575 
    2870    374.89242    1275.8183    9.0376913    9.0376913    18.036122          120     16450.87    38051.874   -22198.401   -8298.4864   -4898.0092   -11159.338    9.0376913    7.8268703    18.036122    10768.115   -2432.8083 
    2880    370.58307    1275.6379    9.0372653    9.0372654    18.035272          120    16205.056    38885.415   -21573.303   -7858.4739   -4355.4052   -12143.164    9.0372653    7.8265014    18.035272    11172.389   -2432.7831 
    2890    366.72699    1275.4689    9.0368662    9.0368662    18.034476          120    16141.742    39478.379   -21007.609   -7469.9604   -3909.7029   -13072.259    9.0368662    7.8261557    18.034476    11537.504   -2432.7418 
SHAKE stats (type/ave/delta) on step 2900
  1 0.957196 2.97389e-10
  1 104.52 0
    2900    363.33341    1275.3115    9.0364945    9.0364946    18.033734          120    16065.198    39697.428   -20562.937    -7091.131   -3490.8907   -13980.777    9.0364945    7.8258339    18.033734     11733.23   -2432.7309 
    2910    360.44722     1275.166    9.0361509     9.036151    18.033048          120    16098.316    39710.819   -20172.416   -6663.6176   -3144.6697   -14845.456    9.0361509    7.8255363    18.033048    11878.907   -2432.7146 
    2920    358.16808    1275.0325    9.0358355    9.0358356    18.032419          120    16150.097    39429.591   -19777.908   -6283.4106   -2873.9925   -15564.626    9.0358355    7.8252632    18.032419    11933.926   -2432.7093 
    2930    356.66215     1274.911    9.0355485    9.0355486    18.031846          120    16381.231    38865.646    -19368.25   -5844.6808    -2762.491   -16228.085    9.0355485    7.8250147    18.031846    11959.542   -2432.7007 
    2940    356.13263    1274.8015    9.0352899      9.03529     18.03133          120    16595.506    38025.128   -18954.782   -5343.4528   -2793.2178   -16821.309    9.0352899    7.8247907     18.03133    11888.617   -2432.7143 
    2950    356.76652     1274.704    9.0350594    9.0350595     18.03087          120    16800.842    36884.827   -18543.906   -4787.1436   -2896.8981    -17355.27    9.0350594     7.824591     18.03087    11713.921   -2432.7575 
    2960    358.69414    1274.6182    9.0348567    9.0348567    18.030465          120    17013.252    35652.626   -18017.357   -4208.0926   -3141.6249   -17742.556    9.0348567    7.8244155    18.030465    11549.507    -2432.799 
    2970    361.93792    1274.5439    9.0346812    9.0346813    18.030115          120    17054.025     34274.24    -17483.27   -3559.9173   -3488.5521   -18035.292    9.0346812    7.8242635    18.030115    11281.665   -2432.8761 
    2980    366.36002    1274.4809    9.0345324    9.0345325    18.029818          120    17038.738    32817.315   -16892.058   -2852.2332   -3934.1032   -18260.094    9.0345324    7.8241346    18.029818    10987.998   -2432.9702 
    2990    371.64767    1274.4289    9.0344095    9.0344096    18.029573          120    16945.034    31416.571   -16362.646   -2100.1662   -4450.0195   -18371.773    9.0344095    7.8240282    18.029573     10666.32   -2433.0834 
SHAKE stats (type/ave/delta) on step 3000
  1 0.957199 6.28433e-10
  1 104.52 0
    3000      377.334    1274.3876    9.0343118    9.0343119    18.029378          120     16879.66    30184.037    -15826.59   -1306.4542   -4989.8616   -18319.951    9.0343118    7.8239436    18.029378    10412.369   -2433.1835 
    3010    382.86959    1274.3566    9.0342386    9.0342387    18.029232          120    16845.867    29000.573   -15244.782   -488.77384    -5596.047   -18264.188    9.0342386    7.8238802    18.029232    10200.553   -2433.2864 
    3020    387.69133    1274.3358    9.0341894    9.0341895    18.029134          120    16900.139    27978.955   -14777.354    362.84579   -6283.2325   -18146.726    9.0341894    7.8238376    18.029134    10033.913   -2433.3914 
    3030    391.31378    1274.3249    9.0341638    9.0341638    18.029083          120    17099.349    27180.908   -14358.017    1219.5506   -7017.8768   -17985.658    9.0341638    7.8238154    18.029083      9974.08   -2433.4815 
    3040    393.44114     1274.324    9.0341616    9.0341617    18.029078          120    17501.626    26593.785   -13987.593    2030.7583    -7815.949   -17791.834    9.0341616    7.8238135    18.029078    10035.939   -2433.5505 
    3050    393.99988    1274.3331     9.034183    9.0341831    18.029121          120    18105.883    26360.024   -13582.888    2830.2929   -8755.7535   -17562.115     9.034183    7.8238321    18.029121     10294.34   -2433.5724 
    3060    393.15402    1274.3524    9.0342286    9.0342286    18.029212          120    18881.257    26232.084   -13324.964    3577.0641   -9695.0749   -17421.916    9.0342286    7.8238715    18.029212    10596.126   -2433.5932 
    3070    391.31512    1274.3821    9.0342989     9.034299    18.029352          120    19804.704    26280.609   -13136.918    4293.7099    -10764.36   -17401.468    9.0342989    7.8239324    18.029352    10982.798   -2433.5945 
    3080    389.12245    1274.4228    9.0343949     9.034395    18.029544          120    20847.008    26530.803    -13136.47    4879.3809   -11723.453   -17387.276    9.0343949    7.8240156    18.029544     11413.78   -2433.5881 
    3090    387.31175    1274.4747    9.0345176    9.0345177    18.029789          120    21936.523    26981.728    -13450.36    5359.4168   -12715.849   -17492.886    9.0345176    7.8241218    18.029789     11822.63   -2433.5872 
SHAKE stats (type/ave/delta) on step 3100
  1 0.957202 1.55077e-09
  1 104.52 0
    3100    386.51721    1274.5383    9.0346679    9.0346679    18.030089          120    23069.196    27438.368   -14187.952    5779.6757   -13703.696   -17708.786    9.0346679     7.824252    18.030089    12106.537    -2433.617 
    3110    387.12825    1274.6138    9.0348463    9.0348463    18.030445          120    24111.694    27967.149   -15202.088    6041.7235   -14644.297   -18049.668    9.0348463    7.8244065    18.030445    12292.251   -2433.6659 
    3120    389.20124    1274.7014    9.0350532    9.0350533    18.030858          120    25145.359    28610.003    -16585.08    6336.0826   -15552.595   -18502.255    9.0350532    7.8245857    18.030858    12390.094   -2433.7167 
    3130     392.4607    1274.8011     9.035289     9.035289    18.031328          120    26118.797    29242.007   -18378.087    6578.0271   -16424.328   -19098.013     9.035289    7.8247898    18.031328    12327.572    -2433.793 
    3140    396.38018     1274.913    9.0355533    9.0355533    18.031856          120    27055.409    29832.265     -20479.7    6804.6963   -17286.921   -19756.396    9.0355533    7.8250187    18.031856    12135.991   -2433.8799 
    3150    400.36808    1275.0368    9.0358457    9.0358457    18.032439          120    27875.075    30332.706   -22766.676    7087.6963   -18181.009   -20446.904    9.0358457     7.825272    18.032439    11813.702   -2433.9746 
    3160     403.9303    1275.1722    9.0361654    9.0361655    18.033077          120    28533.641    30723.922   -25111.053    7391.2341   -19027.073   -21174.255    9.0361654    7.8255489    18.033077     11382.17   -2434.0716 
    3170    406.74946    1275.3187    9.0365115    9.0365116    18.033768          120    29220.255    31073.674   -27433.498    7826.6855    -19940.72    -21918.15    9.0365115    7.8258486    18.033768    10953.477   -2434.1399 
    3180    408.66133    1275.4759    9.0368828    9.0368829    18.034509          120    29791.933    31170.315   -29712.621    8316.5105   -20831.968    -22604.77    9.0368828    7.8261702    18.034509    10416.542   -2434.2179 
    3190    409.61491    1275.6433    9.0372782    9.0372782    18.035298          120    30396.857    31205.083   -31698.782     8874.511   -21679.284   -23208.338    9.0372782    7.8265125    18.035298    9967.7196   -2434.2526 
SHAKE stats (type/ave/delta) on step 3200
  1 0.957205 4.95125e-10
  1 104.52 0
    3200    409.58524    1275.8204    9.0376964    9.0376965    18.036133          120    31009.607    31024.746   -33506.935    9448.2014   -22498.791   -23800.886    9.0376964    7.8268748    18.036133    9509.1393   -2434.2788 
    3210     408.5348    1276.0068    9.0381365    9.0381366    18.037011          120    31604.585    30657.697   -34991.798    10060.089   -23192.912    -24336.22    9.0381365    7.8272559    18.037011    9090.1613   -2434.2939 
    3220    406.40854    1276.2021    9.0385975    9.0385975    18.037931          120    32135.119    30173.905   -36259.724    10642.527   -23819.364    -24770.23    9.0385975    7.8276551    18.037931    8683.1001   -2434.3146 
    3230    403.17799    1276.4057    9.0390783    9.0390783     18.03889          120    32817.724    29559.808   -37187.491    11197.821   -24323.125    -25154.81    9.0390783    7.8280715     18.03889    8396.6802   -2434.3101 
    3240    398.85429    1276.6176    9.0395783    9.0395784    18.039888          120    33615.044    28925.242   -37752.117    11642.154   -24724.291   -25395.871    9.0395783    7.8285045    18.039888    8262.7225   -2434.2768 
    3250    393.55927    1276.8374    9.0400971    9.0400972    18.040924          120    34493.775    28254.525   -38048.203    11965.463   -25004.829   -25544.925    9.0400971    7.8289539    18.040924    8233.3656   -2434.2321 
    3260    387.54156    1277.0652    9.0406347    9.0406348    18.041997          120    35420.498    27555.573   -38130.152    12156.634   -25126.357   -25567.345    9.0406347    7.8294194    18.041997    8281.9728   -2434.1839 
    3270    381.15365     1277.301    9.0411912    9.0411912    18.043107          120    36434.177    26826.537   -38013.979    12240.899   -25217.277   -25488.049    9.0411912    7.8299013    18.043107    8415.5781   -2434.1278 
    3280    374.79696     1277.545    9.0417667    9.0417668    18.044256          120    37337.666    26166.191   -37718.229    12107.603   -25190.332   -25279.551    9.0417667    7.8303997    18.044256    8595.2093   -2434.0689 
    3290    368.88497    1277.7972    9.0423618    9.0423618    18.045443          120    38349.294    25591.681   -37384.871    11934.783   -25034.681    -24971.84    9.0423618    7.8309151    18.045443    8852.0345   -2433.9923 
SHAKE stats (type/ave/delta) on step 3300
  1 0.957207 6.4262e-10
  1 104.52 0
    3300     363.7664     1278.058    9.0429769     9.042977    18.046671          120    39134.153    25024.087   -37134.479    11545.409   -24872.083   -24606.462    9.0429769    7.8314478    18.046671    9007.9202   -2433.9504 
    3310    359.68798    1278.3276    9.0436125    9.0436126    18.047939          120    39821.006    24523.121   -36954.004    11069.838   -24690.916   -24218.012    9.0436125    7.8319983    18.047939    9130.0411    -2433.916 
    3320    356.78444    1278.6059    9.0442689     9.044269    18.049249          120     40374.06    24097.882   -36961.928    10504.265   -24430.037   -23821.777    9.0442689    7.8325667    18.049249    9170.0047   -2433.8995 
    3330    355.07626    1278.8931    9.0449461    9.0449462      18.0506          120    40722.416    23745.169   -37085.745    9907.2458   -24165.952   -23461.415    9.0449461    7.8331532      18.0506    9127.2799   -2433.8987 
    3340    354.47919    1279.1892    9.0456439     9.045644    18.051993          120     40831.95    23433.785   -37371.815    9242.0095    -23930.77   -23188.886    9.0456439    7.8337575    18.051993    8964.6398   -2433.9294 
    3350    354.83687    1279.4939    9.0463621    9.0463621    18.053426          120    40872.756    23188.009   -37752.088    8548.2406   -23686.049   -23039.883    9.0463621    7.8343794    18.053426    8769.5586   -2433.9622 
    3360    355.90693     1279.807       9.0471    9.0471001    18.054899          120    40756.626    22944.049   -38199.552    7892.2512   -23410.334    -22997.38       9.0471    7.8350185    18.054899    8500.3745   -2434.0111 
    3370    357.37566    1280.1283    9.0478571    9.0478572     18.05641          120    40620.023    22781.771   -38673.952    7224.7543   -23054.733   -22984.103    9.0478571    7.8356742     18.05641     8242.614   -2434.0526 
    3380    358.84923    1280.4576    9.0486328    9.0486329    18.057958          120    40423.095    22582.215   -39170.075     6607.067   -22669.214   -23051.444    9.0486328    7.8363459    18.057958    7945.0782   -2434.1005 
    3390    359.87452    1280.7945    9.0494263    9.0494263    18.059541          120    40181.759    22329.538   -39612.023    5966.7929   -22240.023   -23182.744    9.0494263    7.8370331    18.059541    7633.0913   -2434.1437 
SHAKE stats (type/ave/delta) on step 3400
  1 0.957209 1.79748e-10
  1 104.52 0
    3400     360.0229    1281.1387    9.0502369    9.0502369    18.061159          120    39946.353    22049.541   -39979.126    5362.9963   -21743.787   -23228.426    9.0502369    7.8377351    18.061159    7338.9224   -2434.1672 
    3410    358.92374    1281.4899    9.0510638    9.0510639    18.062809          120    39746.232     21696.15   -40334.603    4798.2226   -21153.242   -23175.696    9.0510638    7.8384513    18.062809    7035.9261   -2434.1769 
    3420    356.33404    1281.8478    9.0519065    9.0519065    18.064491          120    39415.169     21230.23   -40612.569    4256.4557   -20473.704   -23002.744    9.0519065     7.839181    18.064491    6677.6097   -2434.1817 
    3430    352.19786    1282.2121    9.0527638    9.0527639    18.066202          120    39199.177    20712.535   -40878.039    3752.5312    -19760.19   -22704.683    9.0527638    7.8399235    18.066202    6344.5573   -2434.1507 
    3440    346.65376    1282.5824    9.0536352    9.0536353    18.067941          120    38945.449     20163.17   -41182.408    3264.1982   -18993.598   -22255.348    9.0536352    7.8406782    18.067941    5975.4039   -2434.1036 
    3450    340.04864    1282.9584    9.0545197    9.0545198    18.069706          120    38588.849    19559.862   -41444.709    2895.7089   -18192.747   -21695.937    9.0545197    7.8414442    18.069706    5568.0006   -2434.0409 
    3460    332.91442    1283.3396    9.0554164    9.0554165    18.071496          120    38231.655    18920.818    -41744.87    2609.0275   -17351.101   -21042.571    9.0554164    7.8422207    18.071496    5135.8679   -2433.9635 
    3470    325.95639    1283.7255    9.0563241    9.0563242    18.073307          120    37756.469    18291.112   -42094.425    2365.4886   -16467.941   -20264.382    9.0563241    7.8430068    18.073307    4651.0517   -2433.8905 
    3480    319.97231    1284.1158    9.0572418    9.0572419    18.075139          120     37241.28    17636.028    -42557.51    2298.6182   -15622.549   -19487.259    9.0572418    7.8438016    18.075139    4106.5994   -2433.8278 
    3490    315.69474    1284.5099    9.0581682    9.0581683    18.076987          120    36600.239    16982.916   -43093.785     2350.373    -14790.53   -18740.101    9.0581682    7.8446038    18.076987    3496.4564   -2433.7904 
SHAKE stats (type/ave/delta) on step 3500
  1 0.95721 4.63625e-10
  1 104.52 0
    3500    313.67114    1284.9071    9.0591018    9.0591018     18.07885          120    35870.584    16349.536   -43654.661     2519.699   -13981.699   -17979.467    9.0591018    7.8454123     18.07885    2855.1532   -2433.7746 
    3510    314.12389    1285.3068     9.060041    9.0600411    18.080725          120    35059.195    15704.925   -44304.543    2841.5244   -13259.136   -17277.415     9.060041    7.8462257    18.080725    2153.1925   -2433.7966 
    3520      316.849    1285.7083    9.0609843    9.0609843    18.082607          120    34191.722    15035.865   -45050.756    3262.3677   -12546.987   -16583.816    9.0609843    7.8470426    18.082607    1392.2771   -2433.8583 
    3530    321.22627    1286.1108    9.0619298    9.0619298    18.084494          120    33271.511    14379.956    -45797.97     3752.649   -11924.763   -15982.261    9.0619298    7.8478615    18.084494     617.8321   -2433.9435 
    3540    326.33036    1286.5136    9.0628757    9.0628758    18.086382          120    32295.205    13711.867   -46477.222    4270.4492   -11353.702   -15359.783    9.0628757    7.8486807    18.086382   -156.71646   -2434.0431 
    3550    331.10655    1286.9159    9.0638202    9.0638203    18.088267          120    31354.703    12937.758   -47029.053    4823.6206   -10782.572   -14916.916    9.0638202    7.8494986    18.088267   -912.19721   -2434.1465 
    3560    334.61533    1287.3168    9.0647615    9.0647616    18.090145          120     30401.53    12324.411   -47411.058    5406.3001    -10250.53    -14394.98    9.0647615    7.8503138    18.090145   -1561.7057   -2434.2138 
    3570    336.21904    1287.7159    9.0656981    9.0656981    18.092014          120    29475.529    11701.611   -47623.828    5883.3368   -9757.4489   -14000.956    9.0656981    7.8511249    18.092014   -2148.8961    -2434.255 
    3580    335.72039    1288.1124    9.0666285    9.0666286    18.093871          120     28593.74    11097.217   -47673.002    6311.5787   -9242.2922   -13727.981    9.0666285    7.8519307    18.093871   -2660.6816   -2434.2662 
    3590    333.35165    1288.5059    9.0675516    9.0675517    18.095713          120    27702.302    10510.219   -47602.789    6657.9684   -8783.2108   -13595.729    9.0675516    7.8527301    18.095713   -3130.0893   -2434.2549 
SHAKE stats (type/ave/delta) on step 3600
  1 0.95721 2.30127e-12
  1 104.52 0
    3600    329.67533    1288.8959    9.0684663    9.0684663    18.097539          120    26801.127     10018.71   -47408.633    6879.4586   -8326.7809   -13583.934    9.0684663    7.8535222    18.097539   -3529.5986   -2434.2198 
    3610    325.38703    1289.2819    9.0693715    9.0693716    18.099345          120    25906.473    9595.3255   -47215.293    6968.5195   -7829.9936   -13740.228    9.0693715    7.8543062    18.099345   -3904.4984   -2434.1803 
    3620    321.14512    1289.6636    9.0702665    9.0702666    18.101131          120    25012.101    9252.1621   -46912.517    6989.2641   -7287.9048   -13990.534    9.0702665    7.8550813    18.101131   -4216.0844   -2434.1301 
    3630    317.45343    1290.0407    9.0711504    9.0711505    18.102895          120    24161.835    8983.7009   -46711.886    6873.4202   -6757.7144   -14389.905    9.0711504    7.8558468    18.102895   -4522.1166   -2434.0977 
    3640    314.62361    1290.4128    9.0720226    9.0720226    18.104636          120    23316.184    8778.0159   -46534.586    6676.5549   -6251.3004   -14848.531    9.0720226    7.8566021    18.104636   -4813.4622   -2434.0817 
    3650    312.78714    1290.7798    9.0728823    9.0728824    18.106352          120    22524.903    8729.3679   -46186.722    6392.5963   -5795.8658   -15350.137    9.0728823    7.8573467    18.106352   -4977.4838   -2434.0536 
    3660    311.90852    1291.1412    9.0737292    9.0737293    18.108042          120    21737.458    8752.6062   -46030.987      6086.95   -5296.9863   -15898.749    9.0737292    7.8580801    18.108042   -5180.3076   -2434.0716 
    3670    311.80873    1291.4971    9.0745629    9.0745629    18.109705          120    20977.263     8973.013    -45794.36    5801.2493   -4810.7831   -16392.162    9.0745629     7.858802    18.109705   -5281.3616   -2434.0863 
    3680    312.20111    1291.8473    9.0753829     9.075383    18.111342          120    20257.211    9295.7116    -45563.65    5475.1807   -4305.5352   -16876.626    9.0753829    7.8595123    18.111342   -5336.9092   -2434.1158 
    3690    312.72882    1292.1917    9.0761894    9.0761895    18.112951          120    19515.397    9708.1553   -45265.206     5177.278   -3823.6645   -17275.867    9.0761894    7.8602107    18.112951    -5347.218   -2434.1553 
SHAKE stats (type/ave/delta) on step 3700
  1 0.957208 1.2604e-11
  1 104.52 0
    3700    313.03737    1292.5304    9.0769822    9.0769822    18.114534          120    18818.683    10288.328   -44872.261    4916.7914   -3348.8007   -17580.046    9.0769822    7.8608972    18.114534   -5255.0835   -2434.1828 
    3710    312.83655    1292.8633    9.0777615    9.0777616    18.116089          120    18113.338    10896.112   -44434.386    4659.6256   -2942.9579   -17893.093    9.0777615    7.8615722    18.116089   -5141.6453   -2434.2165 
    3720    311.91487    1293.1907    9.0785277    9.0785278    18.117618          120    17446.777    11650.981   -43835.891    4415.6144   -2537.0191   -18093.844    9.0785277    7.8622357    18.117618   -4912.7112   -2434.2208 
    3730    310.18859    1293.5128    9.0792813    9.0792814    18.119122          120    16780.712    12510.092   -43117.297    4265.5131   -2218.5469   -18264.126    9.0792813    7.8628884    18.119122   -4608.8309   -2434.2036 
    3740    307.69554    1293.8299    9.0800231    9.0800232    18.120602          120    16031.218    13391.756   -42353.957    4212.2233   -1959.6642   -18290.746    9.0800231    7.8635308    18.120602   -4310.3278   -2434.1847 
    3750     304.5776    1294.1422    9.0807537    9.0807538     18.12206          120    15288.169    14176.332   -41526.822    4164.9514   -1823.9295   -18286.158    9.0807537    7.8641635     18.12206   -4020.7737   -2434.1631 
    3760    301.08786    1294.4502    9.0814739     9.081474    18.123498          120    14535.907    14894.645   -40649.622    4175.4953   -1778.0397   -18191.843    9.0814739    7.8647872    18.123498   -3739.6902   -2434.1367 
    3770    297.58966     1294.754    9.0821844    9.0821844    18.124915          120    13777.561    15517.251   -39748.519     4260.279   -1796.0616   -18062.549    9.0821844    7.8654025    18.124915   -3484.5692    -2434.111 
    3780    294.53422    1295.0539    9.0828857    9.0828857    18.126315          120    13029.226    16062.549   -38849.609    4368.1957   -1956.5427   -17862.853    9.0828857    7.8660098    18.126315   -3252.6114   -2434.0855 
    3790    292.35723    1295.3503    9.0835784    9.0835785    18.127697          120    12307.925    16532.164   -37905.363    4462.7418   -2161.1476   -17659.155    9.0835784    7.8666097    18.127697   -3021.7579   -2434.0544 
SHAKE stats (type/ave/delta) on step 3800
  1 0.957207 2.19717e-10
  1 104.52 0
    3800    291.40658    1295.6432    9.0842631    9.0842631    18.129064          120    11545.972    16777.305   -37252.809    4669.1266   -2363.3921   -17439.213    9.0842631    7.8672027    18.129064   -2976.5106   -2434.0765 
    3810    291.83554    1295.9328    9.0849398    9.0849398    18.130414          120    10888.332    16938.391   -36754.165    4882.6354   -2601.5286   -17208.102    9.0849398    7.8677887    18.130414   -2975.8138   -2434.1067 
    3820    293.52691     1296.219    9.0856086    9.0856086    18.131749          120    10346.897    17007.674   -36507.359    5175.0332   -2832.4501   -17008.338    9.0856086    7.8683679    18.131749   -3050.9294   -2434.1571 
    3830    296.06249    1296.5018    9.0862693    9.0862693    18.133067          120    9844.7793    16997.196   -36373.529    5421.7172   -3013.2824   -16862.754    9.0862693    7.8689401    18.133067   -3177.1843   -2434.2138 
    3840    298.76507     1296.781    9.0869216    9.0869217    18.134369          120    9436.1592    16958.689   -36447.316    5735.5253   -3093.6331   -16645.918    9.0869216     7.869505    18.134369   -3350.8228   -2434.2727 
    3850    300.88395    1297.0566    9.0875652    9.0875652    18.135653          120    9084.0303    16890.541   -36531.458    6004.8694   -3085.1639   -16438.926    9.0875652    7.8700624    18.135653   -3518.9622   -2434.3222 
    3860    301.72615    1297.3282    9.0881996    9.0881996     18.13692          120    8811.4501     16772.25   -36645.849    6329.2942   -3026.1514   -16285.915    9.0881996    7.8706118     18.13692   -3687.3828   -2434.3617 
    3870    300.86096    1297.5959    9.0888244    9.0888245    18.138167          120    8573.2321    16682.638   -36723.111    6565.5037   -2884.4881   -16077.466    9.0888244    7.8711529    18.138167   -3822.4138   -2434.3776 
    3880    298.21789    1297.8593    9.0894394    9.0894394    18.139394          120    8369.2629    16623.735   -36765.897    6775.6568   -2682.7677   -15898.258    9.0894394    7.8716855    18.139394   -3924.2997   -2434.3797 
    3890    294.10894    1298.1184    9.0900443    9.0900444    18.140601          120     8259.535    16655.372   -36493.467     6944.374   -2432.9568   -15659.576    9.0900443    7.8722094    18.140601     -3859.52   -2434.3253 
SHAKE stats (type/ave/delta) on step 3900
  1 0.957206 1.96808e-11
  1 104.52 0
    3900    289.09138    1298.3733    9.0906393    9.0906393    18.141788          120    8108.3686    16698.032   -36112.869    6992.8902   -2161.5293   -15446.288    9.0906393    7.8727246    18.141788   -3768.8229   -2434.2687 
    3910    283.82557    1298.6241    9.0912245    9.0912246    18.142956          120    7927.6743    16782.707    -35632.17    6937.1737   -1856.2914   -15241.782    9.0912245    7.8732315    18.142956   -3640.5962   -2434.2122 
    3920    278.91336    1298.8709    9.0918004    9.0918004    18.144106          120    7748.3141    16837.586   -34977.986    6830.4781   -1450.9699   -15075.901    9.0918004    7.8737302    18.144106   -3464.0285   -2434.1605 
    3930    274.75038    1299.1139    9.0923672    9.0923673    18.145237          120     7600.598    16904.104   -34207.743    6600.7499    -1018.143   -14941.939    9.0923672    7.8742211    18.145237    -3234.347   -2434.1121 
    3940    271.48768    1299.3532    9.0929257    9.0929257    18.146351          120    7390.3126    16931.061   -33416.248    6315.7395    -620.8381   -14853.641    9.0929257    7.8747047    18.146351   -3031.6246   -2434.0967 
    3950    269.03858    1299.5892    9.0934762    9.0934762     18.14745          120    7257.7459    16983.793   -32500.286    5922.1684   -233.54565   -14765.467    9.0934762    7.8751815     18.14745   -2752.9157     -2434.08 
    3960    267.16074    1299.8222    9.0940194    9.0940195    18.148534          120     7194.356    17060.202   -31555.397    5517.8673    52.394614   -14710.854    9.0940194    7.8756519    18.148534   -2433.6129   -2434.0723 
    3970    265.55457    1300.0523    9.0945562    9.0945563    18.149605          120    7183.4849    17280.994   -30523.092    5055.2023    238.22859   -14616.769    9.0945562    7.8761168    18.149605   -2019.5379   -2434.0506 
    3980    263.98592    1300.2802    9.0950875    9.0950875    18.150665          120    7250.4223    17472.834   -29639.277    4575.2651    431.77001   -14606.807    9.0950875    7.8765769    18.150665   -1638.6736   -2434.0524 
    3990    262.36398    1300.5061    9.0956142    9.0956142    18.151717          120     7461.513    17669.381   -28794.683    4085.6304    518.40748   -14602.325    9.0956142     7.877033    18.151717   -1221.2628   -2434.0449 
SHAKE stats (type/ave/delta) on step 4000
  1 0.957205 4.58022e-10
  1 104.52 0
    4000    260.77099    1300.7305    9.0961373    9.0961374    18.152761          120     7796.002    17867.753   -28130.975    3574.9679    506.62733   -14646.513    9.0961373    7.8774861    18.152761   -822.40663   -2434.0448 
    4010    259.43902    1300.9539    9.0966579     9.096658    18.153799          120    8207.5182    18025.777   -27616.926    3046.0753    422.03378   -14756.347    9.0966579    7.8779369    18.153799   -461.21029   -2434.0505 
    4020    258.65343    1301.1764    9.0971767    9.0971767    18.154835          120    8665.4079    18161.484   -27423.525    2574.0535    229.93191   -14986.344    9.0971767    7.8783862    18.154835   -198.87777   -2434.0769 
    4030    258.60937    1301.3986    9.0976943    9.0976944    18.155868          120    9286.1528    18169.959   -27426.093    2082.3224   -18.202792   -15251.659    9.0976943    7.8788345    18.155868    10.006297   -2434.1047 
    4040    259.29981    1301.6205    9.0982114    9.0982115      18.1569          120    9902.6643    18176.956   -27719.271     1654.734   -319.97611   -15598.017    9.0982114    7.8792823      18.1569     120.1164   -2434.1513 
    4050    260.51855    1301.8423    9.0987281    9.0987282    18.157931          120    10680.316    18027.305   -28217.941    1318.0898   -715.01685   -15974.215    9.0987281    7.8797298    18.157931    163.22661   -2434.2004 
    4060    261.91863     1302.064    9.0992446    9.0992446    18.158962          120    11554.258    17863.149   -28884.139    981.72275   -1171.4322    -16316.85    9.0992446     7.880177    18.158962    177.75596   -2434.2371 
    4070    263.13378    1302.2856    9.0997608    9.0997609    18.159992          120     12490.76    17573.637   -29654.438    740.77257   -1643.0807   -16643.866    9.0997608    7.8806241    18.159992    136.65295    -2434.274 
    4080    263.92526    1302.5072    9.1002768    9.1002769    18.161022          120    13454.623    17212.171   -30482.948    557.02727   -2136.3592   -16917.368    9.1002768     7.881071    18.161022    61.282027   -2434.3002 
    4090    264.27644    1302.7285    9.1007923    9.1007924     18.16205          120    14418.739    16773.336   -31350.802    489.59679   -2559.7802   -17167.522    9.1007923    7.8815174     18.16205   -52.908831   -2434.3186 
SHAKE stats (type/ave/delta) on step 4100
  1 0.957205 3.50193e-11
  1 104.52 0
    4100     264.3853    1302.9496     9.101307    9.1013071    18.163078          120    15295.652    16262.643   -32207.461    478.07219   -2971.3065   -17325.862     9.101307    7.8819632    18.163078   -216.38876    -2434.333 
    4110    264.59141    1303.1701    9.1018206    9.1018206    18.164102          120    16053.441    15601.855   -33020.103    546.23859   -3332.9509   -17414.983    9.1018206    7.8824079    18.164102   -454.93569   -2434.3503 
    4120    265.22767      1303.39    9.1023324    9.1023324    18.165124          120    16644.598    14840.649   -33898.952    669.63202   -3588.0663   -17463.623    9.1023324    7.8828511    18.165124   -804.56846   -2434.3837 
    4130    266.49244    1303.6087    9.1028416    9.1028416     18.16614          120    17044.692     14055.06   -34689.297    810.69823   -3697.7269   -17431.537    9.1028416    7.8832921     18.16614    -1196.515   -2434.4096 
    4140    268.39333     1303.826    9.1033473    9.1033474    18.167149          120    17282.635    13198.376   -35488.536    976.07718   -3783.1846   -17426.796    9.1033473    7.8837301    18.167149    -1669.175   -2434.4399 
    4150    270.75538    1304.0413    9.1038483    9.1038484    18.168149          120    17252.358    12239.905   -36369.034    1146.7126   -3729.3194   -17370.237    9.1038483     7.884164    18.168149   -2292.2569   -2434.4979 
    4160    273.29943     1304.254    9.1043433    9.1043433    18.169137          120    17032.591    11266.129   -37293.377    1286.3401   -3577.0999   -17295.237    9.1043433    7.8845926    18.169137    -2998.219   -2434.5621 
    4170    275.74992    1304.4634    9.1048304    9.1048305    18.170109          120    16711.463    10307.652   -38198.273    1447.0257   -3373.0357   -17204.464    9.1048304    7.8850145    18.170109   -3726.3861   -2434.6138 
    4180    277.87478    1304.6686     9.105308     9.105308    18.171062          120    16324.048    9382.1202   -39210.796    1563.8315   -3108.8967    -17097.17     9.105308    7.8854281    18.171062   -4501.5425   -2434.6619 
    4190    279.47937     1304.869    9.1057741    9.1057742    18.171992          120    15867.196    8573.7393    -40137.64     1710.945   -2838.0564   -17057.456    9.1057741    7.8858318    18.171992    -5232.235   -2434.6782 
SHAKE stats (type/ave/delta) on step 4200
  1 0.957205 4.1118e-10
  1 104.52 0
    4200     280.3997    1305.0637     9.106227    9.1062271    18.172896          120    15335.522    7715.1067   -41426.267     1857.471   -2516.8434   -16944.644     9.106227     7.886224    18.172896    -6125.213   -2434.7367 
    4210    280.48527    1305.2519    9.1066647    9.1066647     18.17377          120    14889.138    6889.1653   -42654.551    1977.2325   -2191.4393   -16877.753    9.1066647     7.886603     18.17377   -6958.7492   -2434.7621 
    4220     279.6283    1305.4327     9.107085    9.1070851    18.174608          120     14455.81    6181.4663   -43964.701    2116.5196   -1895.0857   -16828.787     9.107085     7.886967    18.174608   -7775.8083   -2434.7739 
    4230    277.85317    1305.6052    9.1074861    9.1074862    18.175409          120    14046.831    5601.9222   -45349.886    2258.6637   -1641.1396   -16804.922    9.1074861    7.8873144    18.175409   -8567.0445   -2434.7748 
    4240    275.33946    1305.7686    9.1078661    9.1078662    18.176167          120    13702.532     5135.252    -46757.07    2404.0601   -1411.5693   -16806.507    9.1078661    7.8876435    18.176167   -9306.4287   -2434.7607 
    4250    272.40343    1305.9222    9.1082233    9.1082233     18.17688          120    13415.129    4700.5866   -48201.608     2572.894   -1228.4573   -16814.196    9.1082233    7.8879528     18.17688   -10028.631   -2434.7476 
    4260      269.425    1306.0653    9.1085558    9.1085559    18.177544          120    13199.579    4417.7775    -49689.29    2772.1921   -1098.8876   -16869.064    9.1085558    7.8882408    18.177544   -10690.645   -2434.7242 
    4270    266.74079     1306.197    9.1088621    9.1088622    18.178155          120    13006.663    4333.0792   -51137.057    3006.5684   -1009.9499   -16875.987    9.1088621    7.8885061    18.178155   -11265.772   -2434.6897 
    4280    264.57994     1306.317     9.109141     9.109141    18.178711          120    12763.553    4343.7277   -52586.002    3196.7705   -976.31327   -16903.003     9.109141    7.8887476    18.178711    -11826.24   -2434.6694 
    4290     263.0045    1306.4246     9.109391    9.1093911     18.17921          120    12533.416    4399.4986   -53970.748    3372.9847    -1034.312   -16903.321     9.109391    7.8889641     18.17921   -12345.944   -2434.6552 
SHAKE stats (type/ave/delta) on step 4300
  1 0.957202 1.2147e-10
  1 104.52 0
    4300    261.93116    1306.5192     9.109611     9.109611    18.179649          120    12211.663    4469.3947   -55333.377    3554.3179   -969.01424   -16844.669     9.109611    7.8891546    18.179649   -12884.106   -2434.6681 
    4310    261.14858    1306.6004    9.1097996    9.1097997    18.180026          120    11893.006    4641.9563   -56642.373    3649.9937   -898.99121   -16718.933    9.1097996     7.889318    18.180026   -13369.137   -2434.6863 
    4320    260.39415    1306.6676    9.1099558    9.1099559    18.180338          120    11542.734     4824.195   -57827.575    3674.1642   -894.57333    -16654.21    9.1099558    7.8894533    18.180338   -13820.215   -2434.7064 
    4330    259.42368    1306.7204    9.1100786    9.1100787    18.180583          120    11211.406    5114.9856    -58789.46    3670.9938   -827.61824   -16486.459    9.1100786    7.8895596    18.180583   -14154.356   -2434.7006 
    4340    258.03254    1306.7585     9.110167    9.1101671    18.180759          120    10890.833    5370.5457   -59638.487    3544.9539   -732.90482   -16308.797     9.110167    7.8896362    18.180759   -14459.036   -2434.6962 
    4350    256.10788    1306.7815    9.1102205    9.1102206    18.180866          120    10601.943    5609.3493   -60364.306    3373.5975   -571.01627    -16105.41    9.1102205    7.8896825    18.180866   -14717.671   -2434.6868 
    4360    253.65379    1306.7892    9.1102383    9.1102384    18.180901          120    10326.364    5714.3849   -60952.543    3059.2903   -446.11565    -15807.36    9.1102383    7.8896979    18.180901   -14970.598   -2434.6847 
    4370    250.76949    1306.7813    9.1102202    9.1102202    18.180865          120    10179.577    5840.0851   -61302.066    2707.1499   -358.80976   -15500.828    9.1102202    7.8896822    18.180865   -15094.135   -2434.6452 
    4380    247.67328    1306.7579    9.1101656    9.1101657    18.180756          120    9993.8506    5887.3435   -61491.986    2346.4726   -217.72616   -15197.776    9.1101656    7.8896349    18.180756   -15203.597   -2434.6122 
    4390    244.62557    1306.7187    9.1100745    9.1100745    18.180574          120     9847.653    5748.0981    -61584.88    1887.5075   -80.525088    -14795.71    9.1100745     7.889556    18.180574    -15329.71   -2434.5939 
SHAKE stats (type/ave/delta) on step 4400
  1 0.957198 7.9446e-11
  1 104.52 0
    4400    241.87036    1306.6636    9.1099466    9.1099466    18.180319          120    9774.9374    5515.4226   -61575.196    1487.2056    70.015207   -14445.549    9.1099466    7.8894452    18.180319   -15428.279   -2434.5806 
    4410    239.57467    1306.5927    9.1097817    9.1097818     18.17999          120    9675.9501    5226.5438   -61367.562    1103.6395    185.65726   -14031.494    9.1097817    7.8893025     18.17999   -15488.356   -2434.5606 
    4420    237.80333    1306.5058    9.1095798    9.1095799    18.179587          120    9635.8515    4775.3281   -61032.149    765.46506    318.41797   -13602.823    9.1095798    7.8891276    18.179587   -15540.323   -2434.5482 
    4430    236.49237    1306.4029    9.1093407    9.1093408     18.17911          120    9523.3809    4251.6227   -60635.461    484.95516    495.11048   -13142.481    9.1093407    7.8889205     18.17911   -15620.153   -2434.5533 
    4440    235.49937     1306.284    9.1090643    9.1090643    18.178558          120    9504.3864    3614.1343   -60132.149    256.06379    620.83016    -12861.26    9.1090643    7.8886812    18.178558   -15671.209   -2434.5568 
    4450    234.66236     1306.149    9.1087505    9.1087506    18.177932          120    9470.1909    2849.2145    -59494.73    127.83014    735.57499   -12696.637    9.1087505    7.8884094    18.177932   -15725.108   -2434.5679 
    4460    233.86938    1305.9979    9.1083993    9.1083993    18.177231          120    9444.6797    2031.2664   -58831.126    103.04494    789.39212   -12633.284    9.1083993    7.8881052    18.177231    -15785.06    -2434.586 
    4470    233.07496    1305.8307    9.1080105    9.1080106    18.176455          120    9425.2044     1258.256   -58005.701    150.10615    905.99566   -12738.099    9.1080105    7.8877686    18.176455    -15774.08   -2434.5914 
    4480    232.26179    1305.6474    9.1075843    9.1075844    18.175605          120    9519.5232    448.75783   -57119.349    281.74589     1027.076   -12984.929    9.1075843    7.8873995    18.175605   -15717.022   -2434.5914 
    4490     231.3959    1305.4481    9.1071209     9.107121     18.17468          120    9565.5122   -255.14507    -56172.74    486.14083     1174.848   -13390.462    9.1071209    7.8869981     18.17468   -15620.791   -2434.5981 
SHAKE stats (type/ave/delta) on step 4500
  1 0.957195 3.36909e-10
  1 104.52 0
    4500    230.40031     1305.233    9.1066206    9.1066206    18.173682          120    9637.2275   -865.77628   -55075.623    774.31408    1377.4855   -13866.893    9.1066206    7.8865648    18.173682   -15434.724      -2434.6 
    4510    229.13857    1305.0022    9.1060839    9.1060839     18.17261          120    9865.6575   -1317.2311   -53940.756    1099.5653    1568.3738   -14462.967    9.1060839       7.8861     18.17261   -15130.777   -2434.5897 
    4520    227.44822    1304.7562    9.1055115    9.1055116    18.171468          120    10086.263   -1580.2815   -52723.157    1449.9947    1883.7227   -15088.682    9.1055115    7.8856044    18.171468   -14739.059   -2434.5844 
    4530    225.26206    1304.4953    9.1049046    9.1049047    18.170257          120    10416.193   -1648.8728   -51410.145    1791.0311    2276.4704   -15697.844    9.1049046    7.8850788    18.170257   -14214.275   -2434.5749 
    4540    222.63933    1304.2201    9.1042644    9.1042645    18.168979          120    10816.996   -1461.7256    -49946.35     2126.951    2715.9528    -16299.64    9.1042644    7.8845243    18.168979    -13530.36   -2434.5537 
    4550    219.78484    1303.9314    9.1035927    9.1035927    18.167639          120    11320.764   -1005.2402   -48388.139    2420.6818    3182.6934    -16796.83    9.1035927    7.8839426    18.167639   -12690.872   -2434.5236 
    4560    217.00943    1303.6301    9.1028914    9.1028914    18.166239          120    11738.685   -381.51221   -46768.039    2593.5061    3725.4399   -17241.571    9.1028914    7.8833352    18.166239   -11803.622   -2434.5201 
    4570    214.65173    1303.3171    9.1021628    9.1021629    18.164785          120     12262.59    526.07339   -45045.108    2751.2561    4207.4993   -17598.913    9.1021628    7.8827043    18.164785   -10752.148   -2434.4997 
    4580    213.00994    1302.9936    9.1014095    9.1014095    18.163282          120    12719.736    1628.5257   -43367.844    2873.5468     4682.978   -17872.536    9.1014095    7.8820519    18.163282   -9673.1943   -2434.5069 
    4590    212.30643    1302.6606    9.1006341    9.1006342    18.161735          120    13276.401    2918.9729   -41651.408    2866.1091    5144.1287   -18050.778    9.1006341    7.8813804    18.161735   -8485.3445   -2434.5082 
SHAKE stats (type/ave/delta) on step 4600
  1 0.957192 1.77723e-11
  1 104.52 0
    4600    212.61169    1302.3194    9.0998395    9.0998396    18.160149          120    13764.988    4457.3795   -39990.589    2834.5982    5485.0804   -18103.586    9.0998395    7.8806923    18.160149   -7256.0738   -2434.5172 
    4610    213.85316    1301.9713    9.0990287    9.0990287    18.158531          120    14301.148    6116.8098   -38467.838    2673.4555    5670.9016   -18104.161    9.0990287    7.8799901    18.158531   -6016.6268   -2434.5409 
    4620    215.82292    1301.6176    9.0982046    9.0982047    18.156886          120    14821.998     7838.307   -37065.134    2423.0896    5735.9274   -18014.102    9.0982046    7.8792764    18.156886   -4801.6096   -2434.5814 
    4630    218.22077    1301.2595    9.0973703    9.0973704    18.155221          120    15321.855     9580.605    -35804.36     2113.119    5689.2993   -17841.276    9.0973703    7.8785539    18.155221   -3633.9665   -2434.6398 
    4640    220.72476    1300.8984    9.0965285    9.0965286    18.153541          120    15843.344    11388.002   -34614.811     1743.895    5511.5376   -17646.466    9.0965285    7.8778249    18.153541   -2461.1548   -2434.6931 
    4650    223.05352    1300.5353    9.0956821    9.0956822    18.151852          120    16371.441    13146.364   -33585.206    1323.6449    5250.4168   -17429.505    9.0956821    7.8770919    18.151852   -1355.8003   -2434.7578 
    4660     224.9971    1300.1714    9.0948338    9.0948338    18.150159          120    16871.679    14911.029   -32652.466    839.28451    4823.1438   -17200.021    9.0948338    7.8763572    18.150159   -289.91923   -2434.8243 
    4670    226.44586    1299.8079    9.0939861    9.0939862    18.148467          120    17532.262    16662.668   -31727.365     308.5163    4374.1165   -16956.372    9.0939861    7.8756231    18.148467    822.52146   -2434.8547 
    4680    227.37951    1299.4458    9.0931417    9.0931418    18.146782          120    18301.706    18283.938   -30944.187    -245.5441    3903.5085   -16680.024    9.0931417    7.8748918    18.146782    1880.4858    -2434.879 
    4690    227.83479    1299.0863     9.092303    9.0923031    18.145109          120    19020.212    19806.998   -30291.996   -772.68036    3346.1299   -16416.686     9.092303    7.8741655    18.145109    2845.0714   -2434.9111 
SHAKE stats (type/ave/delta) on step 4700
  1 0.957191 3.43033e-09
  1 104.52 0
    4700    227.85342    1298.7304    9.0914725    9.0914726    18.143451          120    19819.833     21187.52   -29736.085   -1238.4432    2744.6761   -16134.541    9.0914725    7.8734462    18.143451    3757.0893    -2434.931 
    4710    227.48081    1298.3788    9.0906522    9.0906522    18.141814          120    20609.197    22392.546   -29302.851   -1636.4544    2206.1064   -15859.955    9.0906522    7.8727358    18.141814    4566.2977   -2434.9523 
    4720    226.73611    1298.0326     9.089844    9.0898441    18.140201          120    21444.589    23448.602   -28934.543   -1998.4469    1665.5846     -15599.4     9.089844    7.8720359    18.140201    5319.5491   -2434.9567 
    4730    225.63658    1297.6924    9.0890499    9.0890499    18.138616          120     22297.02    24328.281   -28572.343   -2245.3474    1069.1919   -15369.949    9.0890499    7.8713482    18.138616    6017.6526   -2434.9417 
    4740    224.18876    1297.3589    9.0882712    9.0882713    18.137063          120     23003.19      24989.5   -28337.729   -2437.5993    641.19024   -15159.031    9.0882712    7.8706739    18.137063    6551.6535   -2434.9422 
    4750    222.44472    1297.0327    9.0875095    9.0875095    18.135542          120    23662.254    25486.491   -28113.748    -2555.361    255.81112   -15031.962    9.0875095    7.8700141    18.135542    7011.6657   -2434.9304 
    4760    220.49554    1296.7142    9.0867656    9.0867657    18.134058          120    24139.288    25736.227   -27915.094   -2593.8567   -104.38294   -14887.314    9.0867656    7.8693699    18.134058    7320.1403   -2434.9328 
    4770    218.47191    1296.4038    9.0860404    9.0860405    18.132611          120    24509.913    25885.301   -27591.262    -2622.954   -380.77163   -14835.907    9.0860404    7.8687419    18.132611    7601.3173   -2434.9109 
    4780    216.51492    1296.1017    9.0853345    9.0853345    18.131202          120    24670.616    25891.442     -27245.2   -2575.7435   -620.19989   -14868.564    9.0853345    7.8681305    18.131202    7772.2856   -2434.8968 
    4790    214.73972     1295.808    9.0846482    9.0846482    18.129832          120    24636.805    25739.398   -26746.893   -2533.1809   -784.62428   -15032.375    9.0846482    7.8675362    18.129832    7876.4365   -2434.8833 
SHAKE stats (type/ave/delta) on step 4800
  1 0.957193 3.74205e-09
  1 104.52 0
    4800    213.19444    1295.5228    9.0839818    9.0839818    18.128502          120    24461.314    25475.472   -26094.893    -2481.046   -987.65186   -15257.885    9.0839818    7.8669591    18.128502    7947.2975   -2434.8628 
    4810    211.84765    1295.2463    9.0833354    9.0833354    18.127212          120    24077.964    25116.318   -25346.567   -2443.6787    -1156.602   -15580.968    9.0833354    7.8663992    18.127212    7949.2385   -2434.8521 
    4820     210.5774    1294.9783    9.0827089     9.082709    18.125962          120    23444.713    24653.608   -24535.347    -2392.396   -1341.8515   -15997.013    9.0827089    7.8658567    18.125962    7854.3245   -2434.8654 
    4830    209.22155    1294.7188    9.0821021    9.0821022    18.124751          120    22699.992    24124.876   -23684.822   -2354.7574   -1550.2345   -16391.363    9.0821021    7.8653312    18.124751    7713.3486   -2434.8859 
    4840    207.60653    1294.4676    9.0815147    9.0815148    18.123579          120    21949.679    23658.335   -22658.988   -2300.4983   -1873.1333   -16869.626    9.0815147    7.8648225    18.123579    7649.6752   -2434.8757 
    4850    205.58928    1294.2246    9.0809464    9.0809465    18.122445          120    21142.106    23219.738   -21605.391   -2251.1326   -2262.2798   -17359.542    9.0809464    7.8643304    18.122445    7585.4844   -2434.8596 
    4860    203.12455    1293.9897    9.0803971    9.0803972    18.121348          120    20329.264    22845.749   -20561.312   -2112.1299   -2707.1604   -17864.325    9.0803971    7.8638546    18.121348    7537.9002   -2434.8303 
    4870    200.27144     1293.763    9.0798666    9.0798667     18.12029          120    19604.242    22498.647   -19675.155   -1960.2412   -3259.0682   -18318.416    9.0798666    7.8633952     18.12029    7475.9116   -2434.7993 
    4880    197.15687    1293.5442    9.0793547    9.0793548    18.119268          120    18859.556    22304.742   -18934.919   -1744.9491   -3873.1561   -18750.133    9.0793547    7.8629519    18.119268    7409.7931   -2434.7597 
    4890    193.95879    1293.3333    9.0788613    9.0788613    18.118284          120    18172.846    22212.481   -18437.445   -1419.7611   -4502.2149   -19147.729    9.0788613    7.8625246    18.118284    7315.9607   -2434.7203 
SHAKE stats (type/ave/delta) on step 4900
  1 0.957195 1.66771e-10
  1 104.52 0
    4900      190.841    1293.1302     9.078386     9.078386    18.117335          120    17552.066    22241.009   -18226.088   -1007.2489    -5131.264   -19507.349     9.078386     7.862113    18.117335     7188.996   -2434.6843 
    4910    187.93263    1292.9347    9.0779285    9.0779286    18.116422          120    16941.553    22370.368   -18328.353   -481.54478   -5735.5665   -19847.255    9.0779285    7.8617168    18.116422    6994.5226   -2434.6646 
    4920    185.30829    1292.7467    9.0774885    9.0774885    18.115544          120    16478.867    22640.994   -18715.657    148.20722   -6229.1739    -20137.58    9.0774885    7.8613357    18.115544    6801.4011   -2434.6409 
    4930    182.98221    1292.5659    9.0770653    9.0770653    18.114699          120    16074.261    23093.075   -19307.149    844.33612   -6670.3623   -20334.581    9.0770653    7.8609692    18.114699    6620.0623   -2434.6112 
    4940    180.95146    1292.3921    9.0766585    9.0766585    18.113887          120    15719.718    23757.688   -20079.454     1594.391   -7002.6298   -20433.341    9.0766585    7.8606169    18.113887    6465.9844   -2434.5744 
    4950    179.22996    1292.2251    9.0762676    9.0762677    18.113108          120      15336.3    24496.898   -20946.648    2392.0833    -7196.042   -20486.565    9.0762676    7.8602784    18.113108    6295.5166   -2434.5493 
    4960    177.86223    1292.0649    9.0758924    9.0758924    18.112359          120    15004.727    25288.806   -21996.227    3164.4925   -7204.5265   -20404.036    9.0758924    7.8599534    18.112359    6099.1021   -2434.5447 
    4970    176.93102    1291.9111    9.0755322    9.0755323     18.11164          120    14784.587    26200.831   -23033.428    3942.1223   -7127.6942   -20282.841    9.0755322    7.8596415     18.11164    5983.9968   -2434.5292 
    4980    176.56754    1291.7636    9.0751868    9.0751869    18.110951          120    14580.714    27099.181   -24216.005    4612.0042   -6908.9477   -20014.812    9.0751868    7.8593424    18.110951    5821.2967   -2434.5488 
    4990    176.92016    1291.6222    9.0748559     9.074856     18.11029          120    14517.026    28041.543   -25239.138    5204.0064   -6602.2657   -19648.181    9.0748559    7.8590558     18.11029    5773.1436   -2434.5577 
SHAKE stats (type/ave/delta) on step 5000
  1 0.957197 8.25437e-11
  1 104.52 0
    5000     178.0996     1291.487    9.0745392    9.0745393    18.109658          120    14552.461    28959.064   -26271.832    5671.6059   -6188.9841   -19140.328    9.0745392    7.8587815    18.109658    5746.5641   -2434.5881 
    5010    180.14852    1291.3579    9.0742367    9.0742367    18.109054          120    14755.207      29825.1   -27211.319    6013.1587   -5760.7397   -18561.152    9.0742367    7.8585195    18.109054    5789.6625   -2434.6286 
    5020    182.99892    1291.2348    9.0739484    9.0739484    18.108479          120    15157.016    30685.273   -28075.636    6255.7926   -5260.1351   -17905.917    9.0739484    7.8582699    18.108479    5922.2175   -2434.6747 
    5030    186.46427    1291.1179    9.0736746    9.0736747    18.107933          120    15702.268    31478.363   -28880.481    6391.3782   -4720.7839   -17173.912    9.0736746    7.8580328    18.107933      6100.05   -2434.7389 
    5040    190.25238    1291.0075    9.0734158    9.0734159    18.107416          120    16483.903    32270.179   -29542.068    6460.0341    -4233.461    -16378.85    9.0734158    7.8578087    18.107416    6404.0046   -2434.7944 
    5050    194.01091    1290.9037    9.0731726    9.0731727    18.106931          120    17395.458    32960.352   -30121.232    6398.9051   -3819.5092   -15537.352    9.0731726    7.8575981    18.106931    6744.8592   -2434.8669 
    5060    197.39881    1290.8069    9.0729459     9.072946    18.106479          120    18496.053    33654.521   -30484.864     6256.217   -3431.6304   -14686.303    9.0729459    7.8574017    18.106479    7221.9034   -2434.9168 
    5070    200.14804    1290.7176    9.0727367    9.0727368    18.106061          120    19716.632    34258.665   -30720.966    6016.6566   -3136.8271   -13933.589    9.0727367    7.8572206    18.106061    7751.4435   -2434.9638 
    5080    202.11693    1290.6363    9.0725463    9.0725464    18.105681          120    21010.373    34750.475     -30902.4    5733.6061   -2932.8234   -13189.955    9.0725463    7.8570557    18.105681    8286.1491   -2435.0176 
    5090    203.31171    1290.5636    9.0723758    9.0723759    18.105341          120    22367.799    35254.908   -30947.211    5343.2195   -2813.9027   -12540.067    9.0723758     7.856908    18.105341    8891.8323   -2435.0478 
SHAKE stats (type/ave/delta) on step 5100
  1 0.957199 1.43377e-10
  1 104.52 0
    5100    203.86593       1290.5    9.0722268    9.0722269    18.105043          120    23728.814    35679.622   -30899.251    4943.2881    -2827.227   -12004.852    9.0722268     7.856779    18.105043    9503.0619   -2435.0686 
    5110    204.00042    1290.4461    9.0721005    9.0721006    18.104791          120    25023.075    36066.934    -30795.66    4496.8267   -2936.4305   -11542.345    9.0721005    7.8566696    18.104791    10098.116   -2435.0806 
    5120    203.97186    1290.4025    9.0719985    9.0719985    18.104588          120    26184.154    36266.493   -30696.587    4042.1485   -3119.7164   -11188.804    9.0719985    7.8565812    18.104588    10584.686   -2435.1075 
    5130    204.02455    1290.3698    9.0719217    9.0719218    18.104435          120    27205.831    36432.343   -30533.738     3613.603    -3374.776   -11011.467    9.0719217    7.8565148    18.104435    11034.812   -2435.1227 
    5140    204.34352    1290.3483    9.0718713    9.0718714    18.104334          120    28053.213    36479.594   -30369.446    3227.1511   -3709.1449   -10922.205    9.0718713    7.8564711    18.104334    11387.787   -2435.1424 
    5150    205.05661    1290.3384     9.071848    9.0718481    18.104287          120    28642.992    36428.171   -30204.744    2881.1423   -4015.6943    -10987.38     9.071848    7.8564509    18.104287     11622.14   -2435.1724 
    5160    206.20562    1290.3402    9.0718524    9.0718525    18.104296          120    29032.178    36208.111   -29934.424    2631.9216   -4337.2407    -11126.31    9.0718524    7.8564547    18.104296    11768.622   -2435.2023 
    5170    207.75718     1290.354    9.0718847    9.0718848    18.104361          120    29154.647    35977.517   -29656.603    2446.8019   -4571.5668    -11303.15    9.0718847    7.8564827    18.104361    11825.187   -2435.2335 
    5180    209.58443    1290.3798    9.0719451    9.0719451    18.104481          120    29038.229    35594.439   -29347.502    2304.5641   -4791.1129     -11551.1    9.0719451     7.856535    18.104481    11761.722   -2435.2759 
    5190    211.51992    1290.4174    9.0720333    9.0720334    18.104657          120    28702.415    35204.579   -28997.579    2214.5355   -4962.1973   -11803.951    9.0720333    7.8566114    18.104657    11636.472   -2435.3138 
SHAKE stats (type/ave/delta) on step 5200
  1 0.957201 2.75037e-10
  1 104.52 0
    5200    213.37353    1290.4668     9.072149    9.0721491    18.104888          120    28225.181    34774.697   -28642.854    2227.0733   -5080.2159   -12099.511     9.072149    7.8567116    18.104888    11452.341   -2435.3489 
    5210    214.96346    1290.5277    9.0722918    9.0722919    18.105173          120    27557.722    34306.208   -28274.065    2267.4136   -5159.4823   -12387.982    9.0722918    7.8568353    18.105173    11196.622   -2435.3869 
    5220     216.1369       1290.6    9.0724611    9.0724611    18.105511          120    26735.522    33809.201    -27958.86    2322.2571   -5242.9489   -12664.275    9.0724611    7.8569818    18.105511    10861.954   -2435.4321 
    5230    216.78092    1290.6831    9.0726559     9.072656      18.1059          120    25907.578    33405.737   -27630.958      2418.73   -5318.3886   -12949.235    9.0726559    7.8571506      18.1059    10560.786   -2435.4505 
    5240    216.80672    1290.7769    9.0728756    9.0728757    18.106338          120     24960.88    32998.547   -27394.866    2511.7501   -5380.9626   -13275.203    9.0728756    7.8573409    18.106338    10188.187   -2435.4782 
    5250     216.1603    1290.8809    9.0731193    9.0731193    18.106824          120    24061.032    32719.097   -27291.171     2654.016   -5420.1486   -13609.087    9.0731193    7.8575519    18.106824    9829.6527   -2435.4894 
    5260    214.81375    1290.9947     9.073386     9.073386    18.107357          120    23266.598    32530.158   -27282.168    2831.5963    -5511.004   -13923.984     9.073386    7.8577828    18.107357    9504.8628   -2435.4789 
    5270    212.81147    1291.1181    9.0736749     9.073675    18.107933          120     22509.93    32425.737   -27420.906    3004.3259   -5670.3542   -14305.813    9.0736749    7.8580331    18.107933    9171.5869   -2435.4638 
    5280    210.29169    1291.2506    9.0739853    9.0739854    18.108553          120    21827.871    32311.765   -27802.929    3212.2845   -5893.4412   -14660.198    9.0739853    7.8583019    18.108553    8778.9025   -2435.4607 
    5290    207.49056    1291.3918    9.0743162    9.0743163    18.109213          120    21277.187    32268.506   -28316.865    3412.8344   -6027.2613   -15058.826    9.0743162    7.8585884    18.109213     8409.609   -2435.4458 
SHAKE stats (type/ave/delta) on step 5300
  1 0.957204 4.5639e-12
  1 104.52 0
    5300    204.68636    1291.5415    9.0746667    9.0746668    18.109913          120    20887.184    32253.409   -28933.736    3624.8414   -6226.9494   -15481.349    9.0746667     7.858892    18.109913    8068.9521   -2435.4184 
    5310    202.16274    1291.6991    9.0750359     9.075036    18.110649          120    20653.434    32235.412   -29718.013    3866.0713    -6453.643   -15927.475    9.0750359    7.8592117    18.110649    7723.6111    -2435.392 
    5320    200.11399    1291.8644    9.0754231    9.0754231    18.111422          120     20529.07    32284.507   -30666.817    4063.2772   -6633.5192   -16389.614    9.0754231     7.859547    18.111422    7382.2534   -2435.3616 
    5330    198.56683     1292.037    9.0758272    9.0758273    18.112229          120    20492.939    32259.074   -31804.567    4270.1481   -6832.7707   -16800.351    9.0758272     7.859897    18.112229    6982.4822   -2435.3473 
    5340    197.36446    1292.2165    9.0762475    9.0762475    18.113067          120    20547.998    32181.738   -33076.884    4495.9838   -7001.7257   -17177.516    9.0762475     7.860261    18.113067    6550.9503   -2435.3415 
    5350    196.22247    1292.4025    9.0766828    9.0766829    18.113936          120    20679.896    32073.864     -34437.5    4694.2753   -7129.8883   -17505.557    9.0766828     7.860638    18.113936    6105.4199   -2435.3362 
    5360    194.82087    1292.5944    9.0771321    9.0771322    18.114833          120    20888.404    31961.823   -35852.242    4866.3212   -7207.0597   -17798.313    9.0771321    7.8610271    18.114833    5665.9948   -2435.3232 
    5370    192.90401    1292.7919    9.0775943    9.0775944    18.115755          120    21185.004    31848.839   -37333.304    4989.4576   -7232.1225   -18010.043    9.0775943    7.8614274    18.115755    5233.5133    -2435.303 
    5380     190.3541    1292.9945    9.0780684    9.0780685    18.116701          120     21530.02    31728.028   -38770.824    5079.0113   -7168.9044    -18170.06    9.0780684     7.861838    18.116701    4829.0745   -2435.2716 
    5390    187.21242    1293.2017    9.0785535    9.0785535    18.117669          120    21867.876    31562.769   -40126.088    5076.2334   -6986.7787   -18283.413    9.0785535     7.862258    18.117669    4434.8522    -2435.235 
SHAKE stats (type/ave/delta) on step 5400
  1 0.957205 5.50922e-11
  1 104.52 0
    5400    183.66342    1293.4132    9.0790484    9.0790485    18.118657          120    22157.804    31330.165   -41401.781    5010.9747   -6710.5462   -18297.841    9.0790484    7.8626866    18.118657    4028.7293   -2435.2063 
    5410    179.96326    1293.6286    9.0795523    9.0795524    18.119663          120    22459.068    31126.562   -42525.239    4836.4839   -6386.5356   -18283.034    9.0795523    7.8631231    18.119663    3686.7967   -2435.1628 
    5420    176.40287    1293.8475    9.0800645    9.0800645    18.120685          120    22806.971    30974.593    -43485.96    4611.6335   -5995.5652   -18224.901    9.0800645    7.8635666    18.120685    3431.8679   -2435.0987 
    5430    173.26058    1294.0697    9.0805841    9.0805842    18.121722          120    22980.282    30743.569   -44271.225    4280.1506   -5615.8619   -18157.452    9.0805841    7.8640166    18.121722    3150.8751    -2435.054 
    5440    170.76246    1294.2948    9.0811106    9.0811107    18.122772          120    23035.417    30413.607   -44889.116    3908.6835   -5229.1594   -18054.924    9.0811106    7.8644726    18.122772    2853.3024     -2435.03 
    5450    169.07009    1294.5226    9.0816433    9.0816433    18.123835          120    22982.859    30072.799   -45276.322     3502.419   -4861.6002   -17889.207    9.0816433    7.8649339    18.123835    2593.1119   -2435.0033 
    5460    168.27406    1294.7527    9.0821814    9.0821815    18.124909          120    22808.653    29607.865   -45561.597    3085.3975   -4561.8933   -17732.271    9.0821814    7.8653999    18.124909    2284.9738   -2435.0019 
    5470    168.38317    1294.9849    9.0827243    9.0827244    18.125993          120    22537.364    28974.362    -45738.93    2636.1481   -4309.9328   -17537.928    9.0827243    7.8658701    18.125993    1924.2653   -2435.0218 
    5480    169.33903    1295.2188    9.0832712    9.0832712    18.127084          120    22176.043    28289.615   -45812.821    2191.1192   -4176.7463   -17305.353    9.0832712    7.8663437    18.127084    1550.9456   -2435.0475 
    5490     171.0081     1295.454     9.083821     9.083821    18.128181          120    21718.717    27482.301   -45749.004    1782.5921   -4105.5699   -17061.824     9.083821    7.8668198    18.128181    1150.6712   -2435.0781 
SHAKE stats (type/ave/delta) on step 5500
  1 0.957206 2.43263e-11
  1 104.52 0
    5500     173.2094    1295.6901    9.0843728    9.0843729    18.129283          120    21109.608      26518.2   -45688.545    1391.2634   -4138.8934   -16772.632    9.0843728    7.8672977    18.129283    646.42087   -2435.1356 
    5510    175.74034    1295.9266    9.0849254    9.0849255    18.130385          120    20562.308    25395.068   -45640.718    1045.0998    -4215.265   -16474.751    9.0849254    7.8677763    18.130385    105.55287   -2435.1962 
    5520    178.39322    1296.1629    9.0854776    9.0854777    18.131487          120     20005.62    24202.613   -45543.994    688.08378   -4360.7075   -16197.859    9.0854776    7.8682545    18.131487   -445.25379   -2435.2485 
    5530    180.99728    1296.3985     9.086028    9.0860281    18.132586          120     19447.66    22881.029   -45494.877    334.52568   -4536.1759    -15979.45     9.086028    7.8687311    18.132586   -1055.3961   -2435.3114 
    5540    183.44127    1296.6327    9.0865752    9.0865753    18.133678          120    18953.602    21540.279   -45425.206    18.544265   -4772.6166   -15801.323    9.0865752     7.869205    18.133678   -1643.7751   -2435.3594 
    5550     185.6926     1296.865    9.0871178    9.0871179    18.134761          120    18578.952    20100.008   -45386.118   -275.71379   -4963.7253   -15674.305    9.0871178    7.8696749    18.134761   -2235.7191   -2435.4018 
    5560     187.8299    1297.0948    9.0876544    9.0876545    18.135832          120    18165.114    18671.874   -45340.645   -508.12736   -5200.1311   -15692.023    9.0876544    7.8701396    18.135832   -2834.5524   -2435.4483 
    5570    189.99867    1297.3214    9.0881835    9.0881836    18.136887          120    17806.014    17139.813    -45390.36   -673.58837   -5453.0284     -15780.5    9.0881835    7.8705979    18.136887   -3481.5113   -2435.5134 
    5580    192.36882    1297.5441    9.0887036    9.0887037    18.137926          120    17519.566     15704.24   -45427.804   -814.27438   -5670.8254   -15933.508    9.0887036    7.8710483    18.137926   -4067.9992   -2435.5659 
    5590    195.06856    1297.7625    9.0892134    9.0892135    18.138943          120    17226.902    14304.534   -45463.183   -913.20586   -5886.6631    -16193.33    9.0892134    7.8714898    18.138943   -4643.9154   -2435.6223 
SHAKE stats (type/ave/delta) on step 5600
  1 0.957205 5.10222e-11
  1 104.52 0
    5600    198.14232    1297.9758    9.0897114    9.0897115    18.139937          120     16968.69    12938.442   -45565.776   -951.99743   -6050.4416    -16489.51    9.0897114    7.8719211    18.139937   -5219.5478   -2435.6843 
    5610    201.51492    1298.1836    9.0901964    9.0901964    18.140905          120    16739.444    11645.832   -45655.863   -970.45663   -6173.4911   -16899.051    9.0901964    7.8723411    18.140905   -5756.8621    -2435.736 
    5620    204.95813    1298.3852     9.090667     9.090667    18.141844          120    16417.009    10434.155   -45847.458   -960.60451     -6248.86   -17341.169     9.090667    7.8727486    18.141844    -6332.098   -2435.8013 
    5630    208.14473    1298.5801    9.0911218    9.0911219    18.142751          120    16109.044    9391.1312    -46060.15   -945.44438    -6302.045    -17849.74    9.0911218    7.8731425    18.142751   -6853.3252    -2435.845 
    5640    210.70435    1298.7677    9.0915597    9.0915598    18.143625          120    15714.914    8444.0013   -46336.079   -920.37629    -6311.839   -18336.289    9.0915597    7.8735217    18.143625   -7392.3879   -2435.8877 
    5650    212.29735    1298.9476    9.0919793    9.0919794    18.144463          120    15236.558    7684.3629   -46703.855   -867.04456     -6268.83   -18888.441    9.0919793    7.8738851    18.144463   -7927.6447   -2435.9243 
    5660    212.68494    1299.1191    9.0923794    9.0923795    18.145261          120    14692.172    7010.1382   -47068.702   -846.33938   -6223.2453   -19453.764    9.0923794    7.8742317    18.145261   -8455.4638     -2435.95 
    5670    211.80686    1299.2817    9.0927588    9.0927589    18.146018          120    14090.239    6576.5876   -47538.375   -805.47244   -6179.4523   -20030.724    9.0927588    7.8745602    18.146018   -8957.1828    -2435.962 
    5680    209.79514     1299.435    9.0931164    9.0931164    18.146732          120    13489.446    6335.0744   -47910.648   -801.65662   -6130.0849   -20614.673    9.0931164    7.8748699    18.146732   -9362.0427    -2435.942 
    5690    206.95854    1299.5785     9.093451    9.0934511      18.1474          120    12874.672    6255.5504   -48310.739   -814.99279   -6131.0962   -21217.545     9.093451    7.8751597      18.1474   -9726.8387   -2435.9094 
SHAKE stats (type/ave/delta) on step 5700
  1 0.957203 4.27326e-11
  1 104.52 0
    5700    203.73208    1299.7118     9.093762     9.093762     18.14802          120    12260.171    6219.9918   -48691.513   -804.18338   -6129.7808   -21780.045     9.093762     7.875429     18.14802    -10070.45   -2435.8796 
    5710    200.58947    1299.8346    9.0940484    9.0940485    18.148592          120    11807.635    6264.5276   -49037.106    -805.8493   -6088.1245   -22348.234    9.0940484     7.875677    18.148592   -10321.648    -2435.834 
    5720     197.9903    1299.9467    9.0943097    9.0943098    18.149113          120    11305.116    6384.7078   -49316.969   -806.29769   -6081.3223   -22897.793    9.0943097    7.8759033    18.149113   -10542.382   -2435.7906 
    5730    196.25824    1300.0478    9.0945455    9.0945456    18.149584          120    10875.153    6420.2526   -49651.511   -748.44745   -6139.9831   -23356.819    9.0945455    7.8761075    18.149584   -10785.368   -2435.7718 
    5740    195.55147    1300.1377    9.0947551    9.0947552    18.150002          120    10483.309    6317.8304   -49994.662   -647.30313   -6256.6812   -23797.141    9.0947551    7.8762891    18.150002   -11064.508   -2435.7802 
    5750    195.85748    1300.2161     9.094938    9.0949381    18.150367          120    10198.223    6185.9842   -50377.596   -492.60327   -6470.6966   -24111.898     9.094938    7.8764475    18.150367    -11331.13   -2435.7966 
    5760    196.98143    1300.2828    9.0950936    9.0950937    18.150678          120    10030.222    5974.7839    -50726.62   -263.60201   -6741.9504    -24421.98    9.0950936    7.8765822    18.150678   -11573.871   -2435.8098 
    5770     198.5631    1300.3375    9.0952212    9.0952212    18.150932          120    9865.4606    5565.4108   -51134.504    67.621624   -7053.4897   -24629.228    9.0952212    7.8766927    18.150932   -11901.211   -2435.8525 
    5780     200.1389      1300.38    9.0953201    9.0953202     18.15113          120    9780.8499    5031.4383   -51636.181    405.64682    -7424.998   -24762.402    9.0953201    7.8767783     18.15113   -12274.631   -2435.9041 
    5790    201.21298    1300.4097    9.0953895    9.0953896    18.151268          120    9762.9341    4457.8869   -52050.419    890.10286   -7834.9931   -24818.905    9.0953895    7.8768385    18.151268   -12609.866   -2435.9342 
SHAKE stats (type/ave/delta) on step 5800
  1 0.9572 4.46867e-11
  1 104.52 0
    5800    201.32361    1300.4265    9.0954287    9.0954287    18.151346          120    9808.2753    3833.0453   -52451.118     1458.626   -8208.6375   -24807.266    9.0954287    7.8768724    18.151346   -12936.599   -2435.9498 
    5810    200.14537      1300.43    9.0954368    9.0954369    18.151363          120    9884.5065    3181.4303   -52805.091    2061.3268   -8635.1275   -24743.593    9.0954368    7.8768794    18.151363   -13246.385   -2435.9475 
    5820    197.54247    1300.4199    9.0954132    9.0954133    18.151315          120    9917.7939    2536.0468   -53079.761    2689.2236   -8980.4388   -24634.238    9.0954132     7.876859    18.151315   -13541.974   -2435.9337 
    5830    193.62484    1300.3959    9.0953572    9.0953573    18.151204          120    9992.3801    1873.8154   -53244.841    3281.2146   -9274.9921   -24483.802    9.0953572    7.8768105    18.151204   -13792.882   -2435.9021 
    5840    188.73738    1300.3578    9.0952683    9.0952684    18.151026          120    10156.354    1212.4177   -53275.264    3789.3505    -9562.904   -24264.277    9.0952683    7.8767335    18.151026   -13968.831   -2435.8497 
    5850    183.37422    1300.3053    9.0951461    9.0951462    18.150782          120    10364.827    653.52347   -53194.593    4196.2514   -9734.6496   -24063.512    9.0951461    7.8766277    18.150782   -14058.748   -2435.7851 
    5860    178.08995    1300.2386    9.0949904    9.0949905    18.150472          120    10538.961    162.25526   -52947.526    4513.7877   -9792.0063   -23830.619    9.0949904    7.8764928    18.150472   -14082.103   -2435.7192 
    5870    173.38085    1300.1574    9.0948012    9.0948012    18.150094          120    10752.797   -300.91425   -52568.378    4731.1889   -9748.1942   -23593.404    9.0948012    7.8763289    18.150094   -14038.832   -2435.6605 
    5880    169.60136     1300.062    9.0945786    9.0945787     18.14965          120    11026.408   -680.35959   -52095.176    4878.8037    -9597.215   -23360.868    9.0945786    7.8761362     18.14965   -13916.376   -2435.6097 
    5890    166.92235    1299.9524    9.0943231    9.0943232     18.14914          120    11234.566   -1022.4247   -51550.937    4914.9069    -9334.977   -23114.245    9.0943231    7.8759149     18.14914   -13779.599    -2435.589 
SHAKE stats (type/ave/delta) on step 5900
  1 0.957197 3.51583e-11
  1 104.52 0
    5900    165.32612    1299.8288    9.0940349     9.094035    18.148565          120    11409.298   -1278.2663   -50966.403    4863.5564   -8993.2527   -22942.421    9.0940349    7.8756654    18.148565    -13611.79   -2435.5912 
    5910    164.63491    1299.6915    9.0937146    9.0937147    18.147926          120     11647.88   -1376.2688   -50280.474    4755.9307   -8554.1037   -22765.517    9.0937146     7.875388    18.147926   -13336.288   -2435.5875 
    5920    164.56337    1299.5407    9.0933628    9.0933629    18.147224          120    11910.687   -1329.8976    -49609.13    4627.5767   -8015.4104   -22665.568    9.0933628    7.8750833    18.147224   -13009.447   -2435.5911 
    5930    164.79758    1299.3767    9.0929804    9.0929805     18.14646          120    12117.946   -1155.3218   -49055.489    4457.8772   -7346.3476   -22536.514    9.0929804    7.8747521     18.14646   -12697.622   -2435.6145 
    5940    165.05743       1299.2    9.0925681    9.0925682    18.145638          120    12340.344   -871.04351   -48589.314    4284.0924    -6653.429   -22433.804    9.0925681    7.8743951    18.145638   -12373.338   -2435.6439 
    5950    165.16577    1299.0108    9.0921268    9.0921269    18.144757          120    12594.574   -450.70971   -48139.636    4097.4985   -5901.1243   -22405.611    9.0921268    7.8740129    18.144757   -11998.591   -2435.6588 
    5960    165.08037    1298.8096    9.0916574    9.0916575     18.14382          120    12811.233    81.602994   -47836.181    3921.4007   -5090.1906   -22406.571    9.0916574    7.8736064     18.14382   -11647.782   -2435.6787 
    5970    164.90402    1298.5968    9.0911609    9.0911609    18.142829          120    13042.239    723.45865   -47677.873    3764.8264   -4283.5378   -22443.152    9.0911609    7.8731763    18.142829   -11304.059   -2435.6973 
    5980    164.83653    1298.3728     9.090638    9.0906381    18.141786          120    13265.727    1440.7038   -47514.212    3698.4027   -3437.2096   -22482.246     9.090638    7.8727235    18.141786   -10935.927   -2435.7034 
    5990    165.12747    1298.1379    9.0900898    9.0900898    18.140692          120    13499.913    2102.4147   -47550.994    3656.3027   -2568.8993   -22546.786    9.0900898    7.8722487    18.140692   -10649.555   -2435.7338 
SHAKE stats (type/ave/delta) on step 6000
  1 0.957194 1.11972e-11
  1 104.52 0
    6000    165.99516    1297.8925    9.0895169    9.0895169    18.139548          120     13740.59    2766.4612   -47604.448    3673.7985   -1778.8125   -22646.132    9.0895169    7.8717526    18.139548   -10365.799   -2435.7655 
    6010    167.57615    1297.6368      9.08892    9.0889201    18.138357          120    13977.388    3426.9987   -47684.225    3772.2527   -1062.9127   -22671.072      9.08892    7.8712357    18.138357   -10093.279   -2435.8041 
    6020    169.88274    1297.3712    9.0882999       9.0883     18.13712          120    14163.719    4050.7547   -47747.171    3952.8063   -377.01015   -22757.636    9.0882999    7.8706987     18.13712   -9844.2322   -2435.8591 
    6030    172.80657     1297.096    9.0876572    9.0876573    18.135837          120     14362.89     4566.563   -47799.714      4216.92    195.02307   -22795.463    9.0876572    7.8701421    18.135837   -9623.4206    -2435.935 
    6040    176.14888    1296.8114    9.0869925    9.0869926    18.134511          120    14561.097    5109.9646   -47699.188    4515.9795    700.77645   -22866.376    9.0869925    7.8695664    18.134511   -9342.7089   -2436.0048 
    6050    179.65711    1296.5177    9.0863064    9.0863065    18.133142          120    14720.901    5626.0706   -47410.201    4868.5337    1072.2319   -22938.654    9.0863064    7.8689723    18.133142   -9021.0767    -2436.077 
    6060    183.08344    1296.2153    9.0855999       9.0856    18.131732          120    14991.911    6138.0849   -46997.085    5276.1668    1318.1709   -22984.439    9.0855999    7.8683604    18.131732   -8622.3631   -2436.1391 
    6070    186.21059    1295.9046    9.0848739    9.0848739    18.130283          120    15219.605    6645.3179   -46379.994    5673.7535    1517.4687   -23054.575    9.0848739    7.8677316    18.130283   -8171.6904   -2436.2008 
    6080    188.86931     1295.586    9.0841295    9.0841295    18.128797          120    15464.565    7210.0847   -45548.087    6067.0863    1632.2014   -23085.331    9.0841295     7.867087    18.128797   -7624.4792   -2436.2413 
    6090    190.98159    1295.2602     9.083368    9.0833681    18.127277          120    15734.957    7692.7601   -44678.344    6402.6475    1703.5549   -23090.069     9.083368    7.8664275    18.127277   -7083.5424      -2436.3 
SHAKE stats (type/ave/delta) on step 6100
  1 0.957192 1.19332e-10
  1 104.52 0
    6100    192.54433    1294.9278    9.0825908    9.0825909    18.125726          120    16026.055    8246.9803   -43706.119    6747.2757    1708.0719   -23134.998    9.0825908    7.8657545    18.125726   -6477.6943   -2436.3464 
    6110    193.59701    1294.5893    9.0817994    9.0817995    18.124147          120    16326.547    8909.4689   -42677.268    7095.2538    1682.8708   -23140.567    9.0817994    7.8650691    18.124147   -5813.7506   -2436.3791 
    6120     194.2205    1294.2455    9.0809953    9.0809954    18.122542          120    16687.997    9599.3795   -41663.465    7410.3142    1624.5382   -23129.716    9.0809953    7.8643727    18.122542   -5125.3628   -2436.4056 
    6130    194.50647     1293.897    9.0801803    9.0801803    18.120916          120    17230.785    10438.569    -40697.45    7639.1838    1537.0236   -23048.658    9.0801803    7.8636669    18.120916   -4342.6985   -2436.4004 
    6140    194.54247    1293.5448    9.0793561    9.0793562    18.119271          120    17664.713    11278.886   -39792.352    7826.0771    1421.2835   -22961.715    9.0793561    7.8629531    18.119271   -3616.2509   -2436.4086 
    6150    194.37991    1293.1894    9.0785246    9.0785247    18.117612          120    18141.748    12124.816   -39065.436    7979.6445    1311.7397    -22816.54    9.0785246     7.862233    18.117612   -2932.9573   -2436.4211 
    6160    194.05625    1292.8316    9.0776873    9.0776874    18.115941          120     18588.99    12939.852   -38446.804    8071.5181    1195.9962   -22610.575    9.0776873    7.8615079    18.115941    -2305.987   -2436.4379 
    6170    193.58194    1292.4721    9.0768459     9.076846    18.114262          120    19017.829    13833.646   -38053.211    8101.6295    1071.0381   -22404.263    9.0768459    7.8607792    18.114262    -1733.912    -2436.457 
    6180    192.95664    1292.1115    9.0760016    9.0760017    18.112577          120    19492.533    14733.467    -37802.92    8110.2772    959.16054   -22146.624    9.0760016     7.860048    18.112577   -1192.3065   -2436.4669 
    6190    192.19931    1291.7503    9.0751558    9.0751559    18.110889          120    19979.401    15668.452   -37670.752    8073.2511    889.81438   -21852.854    9.0751558    7.8593155    18.110889   -674.29971   -2436.4633 
SHAKE stats (type/ave/delta) on step 6200
  1 0.957191 3.49976e-12
  1 104.52 0
    6200    191.34292     1291.389    9.0743097    9.0743097      18.1092          120    20397.553    16506.805   -37699.606    7995.8156    881.57497   -21578.387    9.0743097    7.8585828      18.1092   -265.08253    -2436.472 
    6210    190.43106    1291.0281    9.0734642    9.0734643    18.107513          120    20885.071    17285.645   -37811.543    7892.8365    878.28546   -21330.966    9.0734642    7.8578506    18.107513    119.72416   -2436.4666 
    6220    189.49972    1290.6679    9.0726204    9.0726204    18.105829          120     21327.96    18008.588   -38022.337    7791.9116    946.08073   -21136.424    9.0726204    7.8571198    18.105829    438.06999   -2436.4616 
    6230     188.5461    1290.3088    9.0717788    9.0717789    18.104149          120    21719.446    18598.313    -38410.81    7645.0222    1042.8393   -21002.957    9.0717788     7.856391    18.104149    635.64957   -2436.4784 
    6240     187.5347     1289.951    9.0709401    9.0709402    18.102476          120     22155.61    19124.743   -38749.448    7499.5743     1192.996   -20874.827    9.0709401    7.8556647    18.102476     843.6349   -2436.4728 
    6250    186.41187    1289.5946    9.0701047    9.0701047    18.100808          120     22556.05    19497.817   -39058.674    7351.3887    1389.2944   -20794.853    9.0701047    7.8549411    18.100808    998.39728   -2436.4701 
    6260     185.1164    1289.2398    9.0692728    9.0692729    18.099148          120    22952.368    19737.102   -39407.706    7186.6332    1599.5705   -20785.658    9.0692728    7.8542208    18.099148    1093.9216   -2436.4755 
    6270    183.60948    1288.8868    9.0684449     9.068445    18.097496          120    23365.032    19867.496   -39649.909    6963.8759    1827.1874   -20774.392    9.0684449    7.8535037    18.097496    1194.2064   -2436.4673 
    6280    181.88201    1288.5355    9.0676211    9.0676211    18.095852          120    23742.644     19946.82   -39804.816    6751.2666    2022.4947   -20696.185    9.0676211    7.8527903    18.095852    1294.8828   -2436.4497 
    6290    179.97599    1288.1862    9.0668016    9.0668016    18.094217          120    24092.619    19904.543   -39940.679    6515.4465     2212.784   -20618.923    9.0668016    7.8520806    18.094217     1352.161   -2436.4398 
SHAKE stats (type/ave/delta) on step 6300
  1 0.957191 1.1806e-09
  1 104.52 0
    6300    177.95958    1287.8388    9.0659865    9.0659866     18.09259          120    24401.495    19774.161    -40006.64     6287.586    2324.4068    -20495.88    9.0659865    7.8513747     18.09259    1389.6723   -2436.4296 
    6310    175.91864    1287.4935    9.0651761    9.0651762    18.090973          120    24674.999    19594.466   -39959.752    6048.2437    2390.1203   -20378.079    9.0651761    7.8506729    18.090973    1436.5708   -2436.4121 
    6320    173.94229    1287.1502    9.0643703    9.0643704    18.089365          120    24833.742     19409.61   -39967.917    5870.4237    2341.9397   -20186.239    9.0643703     7.849975    18.089365    1425.1451   -2436.4126 
    6330    172.10205    1286.8089    9.0635691    9.0635692    18.087766          120    24954.877    19159.403   -39845.302     5614.048    2281.6415   -20028.934    9.0635691    7.8492812    18.087766    1422.9926     -2436.41 
    6340     170.4554    1286.4697    9.0627726    9.0627727    18.086176          120    25066.964     19033.96   -39681.131    5366.2917    2128.6156   -19829.808    9.0627726    7.8485914    18.086176    1473.2646   -2436.3929 
    6350     169.0331    1286.1325    9.0619808    9.0619809    18.084596          120    25110.257     18973.96   -39515.114    5164.3242    1946.0873   -19718.222    9.0619808    7.8479057    18.084596    1523.0345   -2436.3834 
    6360    167.86093    1285.7975    9.0611938    9.0611939    18.083025          120    25092.862    18980.996   -39404.317    4953.3985    1684.3181   -19658.914    9.0611938    7.8472241    18.083025     1556.514   -2436.3871 
    6370     166.9551    1285.4646    9.0604118    9.0604118    18.081465          120    25046.692    19075.696    -39225.63    4747.1757    1387.1765   -19623.877    9.0604118    7.8465468    18.081465    1632.2529    -2436.388 
    6380    166.30285    1285.1339    9.0596347    9.0596348    18.079914          120    24942.208    19233.418   -39048.278    4503.1743    1077.6068   -19623.342    9.0596347    7.8458739    18.079914    1709.1161   -2436.4018 
    6390    165.86098    1284.8055     9.058863    9.0588631    18.078374          120    24876.731    19510.842   -38764.964     4273.094    747.25531   -19672.501     9.058863    7.8452056    18.078374    1874.2032   -2436.3986 
SHAKE stats (type/ave/delta) on step 6400
  1 0.957192 5.62807e-10
  1 104.52 0
    6400     165.5553    1284.4796    9.0580969     9.058097    18.076845          120     24834.65    19798.087   -38491.553    4018.2983    423.66396    -19813.16    9.0580969    7.8445421    18.076845    2047.0617      -2436.4 
    6410    165.28529    1284.1562    9.0573368    9.0573369    18.075328          120     24779.91    20113.291   -38183.908    3781.5687     75.89215   -20013.669    9.0573368    7.8438839    18.075328     2236.431   -2436.4017 
    6420    164.95804    1283.8357    9.0565832    9.0565833    18.073824          120    24701.055    20362.113   -37913.023     3486.952   -265.33537   -20305.838    9.0565832    7.8432312    18.073824    2383.3817   -2436.4159 
    6430    164.50402    1283.5181    9.0558363    9.0558364    18.072334          120    24667.255    20592.798   -37641.329    3194.4137   -584.04338   -20638.684    9.0558363    7.8425844    18.072334    2539.5747   -2436.4218 
    6440    163.88613    1283.2036    9.0550967    9.0550967    18.070858          120    24600.358    20743.507   -37317.168     2870.957   -868.88969     -21040.6    9.0550967    7.8419438    18.070858    2675.5658   -2436.4244 
    6450    163.10088    1282.8924    9.0543644    9.0543645    18.069396          120    24531.598     20789.69   -37103.117    2534.0687    -1114.402   -21546.724    9.0543644    7.8413097    18.069396    2739.3906   -2436.4367 
    6460    162.16237    1282.5844    9.0536398    9.0536398     18.06795          120    24408.301    20768.608   -36889.583    2192.2914   -1341.9295   -22047.455    9.0536398    7.8406821     18.06795    2762.4417    -2436.446 
    6470     161.0933    1282.2797    9.0529227    9.0529228    18.066519          120    24280.526    20653.337   -36702.112    1805.9956   -1499.1258   -22599.791    9.0529227    7.8400612    18.066519     2743.917   -2436.4504 
    6480    159.90562    1281.9782    9.0522133    9.0522134    18.065103          120    24078.603    20431.808   -36551.785    1432.4627   -1544.3828   -23172.016    9.0522133    7.8394468    18.065103    2652.8753   -2436.4656 
    6490    158.61296      1281.68    9.0515113    9.0515113    18.063702          120    23976.071    20169.433   -36397.045    1019.0147   -1549.1824   -23750.574    9.0515113    7.8388388    18.063702    2582.8197   -2436.4598 
SHAKE stats (type/ave/delta) on step 6500
  1 0.957193 1.87249e-10
  1 104.52 0
    6500    157.24107    1281.3848    9.0508164    9.0508164    18.062316          120    23894.622    19891.573   -36207.665    591.03909   -1469.7529   -24298.731    9.0508164     7.838237    18.062316    2526.1765   -2436.4437 
    6510    155.84086    1281.0927    9.0501285    9.0501286    18.060943          120    23773.866    19589.557   -36033.131    153.43582   -1381.7226   -24806.316    9.0501285    7.8376413    18.060943    2443.4306   -2436.4345 
    6520    154.48774    1280.8035    9.0494475    9.0494475    18.059584          120    23640.293    19318.091   -35813.946   -287.67625   -1270.2834    -25261.54    9.0494475    7.8370515    18.059584    2381.4791   -2436.4243 
    6530    153.27852    1280.5172    9.0487731    9.0487732    18.058238          120    23482.954    19048.905   -35583.025   -686.72278   -1165.6582   -25648.463    9.0487731    7.8364675    18.058238    2316.2778   -2436.4247 
    6540    152.29801    1280.2336    9.0481052    9.0481053    18.056905          120    23332.164    18891.216   -35307.671   -1084.7084   -1056.7591   -25991.671    9.0481052    7.8358891    18.056905    2305.2362   -2436.4229 
    6550    151.59616    1279.9529    9.0474438    9.0474439    18.055585          120    23277.638    18846.116   -34975.382   -1415.2904   -981.13243   -26279.728    9.0474438    7.8353163    18.055585    2382.7904   -2436.4103 
    6560    151.17291     1279.675    9.0467891    9.0467891    18.054278          120    23149.625    18917.905   -34614.202   -1692.6165   -916.22984    -26514.31    9.0467891    7.8347492    18.054278    2484.4429   -2436.4139 
    6570    150.98333    1279.4001    9.0461412    9.0461412    18.052985          120    23053.216    19102.812   -34247.689   -1892.5964   -889.68067   -26701.614    9.0461412    7.8341881    18.052985    2636.1128   -2436.4221 
    6580    150.94785    1279.1283    9.0455005    9.0455006    18.051707          120    22987.105    19412.123   -33877.961   -1994.8124   -886.30702   -26842.625    9.0455005    7.8336333    18.051707    2840.4225   -2436.4325 
    6590    150.97444    1278.8598    9.0448675    9.0448676    18.050444          120    23022.492    19916.524   -33520.361   -2024.5802   -872.27654    -26961.51    9.0448675    7.8330851    18.050444    3139.5517   -2436.4302 
SHAKE stats (type/ave/delta) on step 6600
  1 0.957193 1.69864e-12
  1 104.52 0
    6600    150.96563    1278.5949    9.0442429    9.0442429    18.049197          120    23046.749    20615.374   -33198.969    -1899.745   -896.07404   -27048.002    9.0442429    7.8325442    18.049197     3487.718   -2436.4218 
    6610    150.83975    1278.3339    9.0436274    9.0436275    18.047969          120    23116.564    21275.955   -32900.575   -1748.0951   -914.46644    -27109.17    9.0436274    7.8320111    18.047969     3830.648   -2436.4306 
    6620    150.53002    1278.0771    9.0430219    9.0430219     18.04676          120     23266.85    21979.134   -32691.246   -1486.2192   -955.18901    -27096.53    9.0430219    7.8314867     18.04676    4184.9126   -2436.4427 
    6630    149.97593    1277.8249    9.0424271    9.0424272    18.045573          120    23490.137    22707.927   -32467.401   -1121.0167   -1019.7274   -27059.187    9.0424271    7.8309717    18.045573    4576.8876   -2436.4443 
    6640    149.13349    1277.5778     9.041844    9.0418441     18.04441          120    23804.506    23406.778   -32249.274   -719.63376   -1111.9274   -27007.421     9.041844    7.8304667     18.04441    4987.3365   -2436.4435 
    6650    147.98494    1277.3359    9.0412735    9.0412736    18.043271          120    24134.014    24080.485   -32008.136   -276.98599   -1250.7325   -26945.868    9.0412735    7.8299727    18.043271    5402.1208   -2436.4422 
    6660    146.54466    1277.0999    9.0407166    9.0407167     18.04216          120    24510.727    24673.352   -31756.612    222.76366   -1428.2583   -26830.292    9.0407166    7.8294903     18.04216    5809.1555   -2436.4423 
    6670     144.8708    1276.8701    9.0401742    9.0401742    18.041077          120    24935.707     25274.23   -31375.436    747.47519   -1614.4764   -26724.714    9.0401742    7.8290206    18.041077    6278.1671   -2436.4203 
    6680    143.05965    1276.6468    9.0396473    9.0396473    18.040026          120    25340.656    25824.897   -30981.438    1237.5867   -1819.7883   -26655.923    9.0396473    7.8285643    18.040026    6728.0384   -2436.4025 
    6690    141.24242    1276.4306    9.0391369     9.039137    18.039007          120    25755.252    26243.054   -30495.202    1645.0377   -2093.2367   -26556.341    9.0391369    7.8281223    18.039007    7167.7014   -2436.3866 
SHAKE stats (type/ave/delta) on step 6700
  1 0.957195 5.30794e-10
  1 104.52 0
    6700    139.55515    1276.2218    9.0386441    9.0386442    18.038024          120    26175.007    26521.532   -29946.526    2060.4316   -2360.7033   -26478.244    9.0386441    7.8276955    18.038024    7583.3374   -2436.3749 
    6710    138.12704    1276.0209    9.0381698    9.0381699    18.037077          120    26610.832    26711.505   -29350.012    2473.4158   -2595.2101   -26367.299    9.0381698    7.8272848    18.037077    7990.7749   -2436.3622 
    6720    137.05701    1275.8283     9.037715     9.037715     18.03617          120    26932.533    26822.212   -28704.667     2830.617   -2843.3646    -26314.29     9.037715    7.8268908     18.03617    8350.0257   -2436.3609 
    6730    136.39718    1275.6442    9.0372803    9.0372804    18.035302          120    27182.204    26823.004   -27965.778    3155.5219   -3040.5626   -26292.863    9.0372803    7.8265144    18.035302    8679.8102   -2436.3644 
    6740    136.15315     1275.469    9.0368666    9.0368667    18.034477          120    27332.105    26774.749    -27136.41    3383.2435   -3193.8822   -26239.484    9.0368666    7.8261561    18.034477     8990.148    -2436.368 
    6750    136.28602    1275.3031    9.0364746    9.0364746    18.033694          120    27381.424    26651.294   -26253.656     3594.043   -3318.1061   -26199.704    9.0364746    7.8258166    18.033694    9259.6873   -2436.3751 
    6760    136.70748    1275.1465    9.0361048    9.0361048    18.032956          120    27387.569    26491.655   -25327.181    3763.2559   -3412.1537    -26196.57    9.0361048    7.8254964    18.032956    9517.3474   -2436.3814 
    6770    137.29411    1274.9996    9.0357578    9.0357578    18.032264          120    27255.317    26279.723   -24391.531    3853.8414   -3487.2004   -26209.152    9.0357578    7.8251959    18.032264    9714.5026   -2436.3976 
    6780    137.89696    1274.8625     9.035434    9.0354341    18.031618          120    26997.143    25980.647   -23475.106    3887.2221   -3515.2524   -26217.512     9.035434    7.8249155    18.031618    9834.2282   -2436.4289 
    6790     138.3633    1274.7354    9.0351337    9.0351338    18.031018          120    26709.575    25722.914   -22552.039    3885.3683   -3544.0436   -26231.076    9.0351337    7.8246554    18.031018    9960.1502   -2436.4498 
SHAKE stats (type/ave/delta) on step 6800
  1 0.957197 4.21552e-12
  1 104.52 0
    6800    138.55497    1274.6184    9.0348571    9.0348572    18.030466          120    26393.703     25523.27   -21654.116    3845.5243   -3559.9228   -26215.663    9.0348571    7.8244159    18.030466    10087.619   -2436.4617 
    6810    138.37613    1274.5115    9.0346045    9.0346046    18.029962          120    26057.789    25360.726   -20808.408    3790.2175   -3561.6632   -26176.806    9.0346045    7.8241971    18.029962    10203.369    -2436.469 
    6820    137.77959    1274.4148    9.0343762    9.0343763    18.029507          120    25688.984    25263.948   -20037.547    3738.2009   -3542.0095   -26120.102    9.0343762    7.8239994    18.029507    10305.128   -2436.4739 
    6830    136.77003    1274.3285    9.0341723    9.0341723      18.0291          120     25390.79    25258.703   -19398.448    3676.1179   -3513.5813   -26029.955    9.0341723    7.8238228      18.0291    10417.015   -2436.4677 
    6840     135.3836    1274.2527     9.033993    9.0339931    18.028742          120    25072.173    25327.803   -18928.623    3608.9992   -3534.8692   -25943.455     9.033993    7.8236675    18.028742    10490.451   -2436.4695 
    6850    133.69176    1274.1873    9.0338385    9.0338385    18.028434          120     24849.24    25456.392   -18648.149    3608.4345   -3530.0358   -25836.928    9.0338385    7.8235337    18.028434    10552.494   -2436.4639 
    6860    131.80198    1274.1324    9.0337089    9.0337089    18.028175          120    24731.376    25736.791   -18508.574    3609.7003   -3496.8591   -25697.203    9.0337089    7.8234214    18.028175    10653.198   -2436.4364 
    6870    129.83781    1274.0882    9.0336043    9.0336044    18.027966          120    24669.442    26012.974   -18647.324    3615.3866   -3449.3121   -25651.376    9.0336043    7.8233309    18.027966    10678.364   -2436.4219 
    6880    127.93643    1274.0546    9.0335249    9.0335249    18.027808          120    24632.511    26362.259   -18990.329    3641.9982    -3438.264   -25601.736    9.0335249    7.8232621    18.027808    10668.147   -2436.4073 
    6890    126.23588    1274.0316    9.0334705    9.0334705    18.027699          120    24629.069    26759.742   -19507.035    3668.3997   -3466.2467    -25570.35    9.0334705     7.823215    18.027699    10627.259   -2436.3896 
SHAKE stats (type/ave/delta) on step 6900
  1 0.9572 5.0609e-11
  1 104.52 0
    6900    124.86112    1274.0191    9.0334409     9.033441     18.02764          120    24604.416    27015.199   -20267.901    3725.8925   -3518.5098   -25580.242    9.0334409    7.8231894     18.02764    10450.571   -2436.4042 
    6910    123.91097    1274.0169    9.0334358    9.0334359     18.02763          120     24569.95    27379.115   -21159.412    3719.5456   -3619.6998   -25625.555    9.0334358     7.823185     18.02763    10263.218   -2436.4055 
    6920    123.42865    1274.0249    9.0334547    9.0334548    18.027668          120    24572.116    27693.861   -22221.512    3688.3531   -3745.8363   -25704.868    9.0334547    7.8232013    18.027668    10014.822   -2436.4086 
    6930    123.39721    1274.0428     9.033497     9.033497    18.027752          120    24576.792    27948.642   -23380.394    3643.2779   -3890.1228    -25811.23     9.033497    7.8232379    18.027752    9715.0132   -2436.4148 
    6940    123.75704    1274.0702    9.0335618    9.0335619    18.027881          120    24530.022    28106.651   -24608.176    3584.9369   -4036.1815   -25954.486    9.0335618    7.8232941    18.027881    9342.8325   -2436.4291 
    6950     124.4209    1274.1069    9.0336485    9.0336485    18.028054          120    24454.638    28210.872   -25846.516    3464.6181   -4260.2752   -26098.223    9.0336485    7.8233691    18.028054    8939.6645   -2436.4409 
    6960    125.29334    1274.1523    9.0337559    9.0337559    18.028269          120    24305.071    28250.275   -27142.825    3330.2613   -4472.2585   -26278.049    9.0337559    7.8234621    18.028269    8470.8406   -2436.4622 
    6970    126.29592    1274.2061    9.0338829    9.0338829    18.028522          120    24035.572    28183.157   -28400.958    3190.4842   -4714.4625   -26470.157    9.0338829    7.8235721    18.028522     7939.257   -2436.4923 
    6980    127.36419    1274.2676    9.0340283    9.0340283    18.028812          120    23790.143     28085.26   -29631.514    3035.0898    -4968.348   -26679.134    9.0340283    7.8236981    18.028812    7414.6299   -2436.5095 
    6990    128.43734    1274.3364    9.0341908    9.0341908    18.029137          120    23428.289    27922.587   -30837.775    2866.1687   -5201.5473   -26894.982    9.0341908    7.8238388    18.029137    6837.7001   -2436.5324 
SHAKE stats (type/ave/delta) on step 7000
  1 0.957202 4.36151e-12
  1 104.52 0
    7000    129.45126    1274.4118     9.034369    9.0343691    18.029492          120    23018.181    27726.071   -31920.664    2696.7904   -5380.2379   -27090.447     9.034369    7.8239932    18.029492    6274.5295   -2436.5377 
    7010    130.32638    1274.4933    9.0345617    9.0345617    18.029877          120    22497.585    27432.677   -33049.806    2519.7481   -5572.7297   -27298.254    9.0345617      7.82416    18.029877    5626.8187   -2436.5573 
    7020    130.97371    1274.5803    9.0347672    9.0347673    18.030287          120    21873.306    27137.588   -34131.422    2367.5532    -5753.493   -27446.411    9.0347672     7.824338    18.030287    4959.8237   -2436.5674 
    7030    131.30633    1274.6721    9.0349841    9.0349842     18.03072          120    21191.426    26693.534   -35195.567    2178.2174   -5874.2865   -27629.626    9.0349841    7.8245258     18.03072    4229.7981   -2436.5807 
    7040    131.24438     1274.768    9.0352106    9.0352107    18.031172          120    20449.375    26181.878   -36230.957    1967.1875   -5937.2581    -27787.62    9.0352106     7.824722    18.031172    3466.7653   -2436.5881 
    7050    130.75156    1274.8672    9.0354449     9.035445    18.031639          120    19715.962     25608.82   -37290.857    1758.6525   -5946.7359   -27902.868    9.0354449    7.8249249    18.031639    2677.9746   -2436.5889 
    7060    129.82833    1274.9688    9.0356851    9.0356852    18.032119          120    18911.672    25005.381   -38279.201    1543.5511   -5914.4912    -28004.06    9.0356851    7.8251329    18.032119    1879.2841   -2436.5795 
    7070    128.51605    1275.0723    9.0359295    9.0359295    18.032606          120    18100.256    24341.054   -39194.106    1299.6433    -5804.778   -28088.923    9.0359295    7.8253445    18.032606    1082.4013   -2436.5617 
    7080    126.89307    1275.1767     9.036176    9.0361761    18.033098          120    17316.489    23650.647   -40116.187    1057.7501   -5683.2949   -28138.896     9.036176    7.8255581    18.033098    283.64969   -2436.5425 
    7090     125.0768    1275.2812    9.0364229     9.036423    18.033591          120    16534.629    22877.082   -40954.822    824.84653   -5523.6364   -28202.915    9.0364229    7.8257719    18.033591   -514.37047    -2436.524 
SHAKE stats (type/ave/delta) on step 7100
  1 0.957203 1.11466e-11
  1 104.52 0
    7100    123.20384    1275.3851    9.0366683    9.0366684    18.034081          120    15807.194     22132.22   -41774.579    631.31153   -5351.9798   -28240.771    9.0366683    7.8259844    18.034081   -1278.3883   -2436.5032 
    7110    121.43956    1275.4876    9.0369104    9.0369104    18.034564          120    15146.091    21349.483   -42520.417    462.64542    -5187.838   -28261.766    9.0369104     7.826194    18.034564   -2008.2813   -2436.4846 
    7120     119.9569     1275.588    9.0371475    9.0371475    18.035037          120    14638.151    20599.798   -43230.737    344.30468   -5027.4155   -28313.448    9.0371475    7.8263994    18.035037   -2664.2627   -2436.4594 
    7130    118.90172    1275.6856     9.037378    9.0373781    18.035497          120    14098.658    19870.218   -43858.528    298.96652   -4824.8421   -28357.321     9.037378     7.826599    18.035497   -3296.5508   -2436.4494 
    7140     118.3615    1275.7799    9.0376006    9.0376007    18.035941          120    13660.742    19150.245   -44443.493    274.37287   -4691.1904   -28416.833    9.0376006    7.8267918    18.035941    -3877.502   -2436.4468 
    7150    118.35048    1275.8702    9.0378138    9.0378139    18.036367          120    13259.319    18475.797   -44969.954    287.33296   -4595.7687   -28481.698    9.0378138    7.8269765    18.036367   -4411.6127   -2436.4523 
    7160    118.79648     1275.956    9.0380165    9.0380166    18.036771          120    12891.066    17833.913   -45493.511     330.0888   -4540.2552   -28524.854    9.0380165     7.827152    18.036771    -4922.844   -2436.4727 
    7170    119.56123    1276.0369    9.0382074    9.0382075    18.037152          120    12621.247    17247.815   -45910.457    374.24721   -4519.7555   -28565.235    9.0382074    7.8273173    18.037152   -5347.1316   -2436.4864 
    7180    120.46161    1276.1123    9.0383856    9.0383857    18.037508          120    12355.411    16739.649   -46297.385    428.46435   -4550.1518   -28577.897    9.0383856    7.8274717    18.037508   -5734.1085   -2436.5077 
    7190    121.32293    1276.1821    9.0385503    9.0385503    18.037837          120    12120.477     16346.28   -46576.184    496.78033   -4567.2999     -28551.3    9.0385503    7.8276142    18.037837   -6036.4754   -2436.5204 
SHAKE stats (type/ave/delta) on step 7200
  1 0.957202 2.18525e-12
  1 104.52 0
    7200    122.00769    1276.2457    9.0387005    9.0387006    18.038136          120    11872.652     16004.99   -46834.415    515.40561   -4634.6866   -28537.104    9.0387005    7.8277444    18.038136   -6318.9243   -2436.5423 
    7210    122.44736     1276.303    9.0388358    9.0388359    18.038407          120    11620.645    15762.557   -46975.811    515.84605   -4736.5073   -28471.823    9.0388358    7.8278615    18.038407   -6530.8699   -2436.5553 
    7220    122.65684    1276.3538    9.0389557    9.0389558    18.038646          120    11315.893    15593.261   -47057.882    473.93273   -4886.1768    -28393.62    9.0389557    7.8279654    18.038646   -6716.2426   -2436.5718 
    7230     122.7245    1276.3979    9.0390598    9.0390599    18.038854          120    11066.452    15486.027   -47070.104    396.35576   -5034.3844   -28305.715    9.0390598    7.8280555    18.038854   -6839.2083   -2436.5796 
    7240    122.77053    1276.4352    9.0391478    9.0391478    18.039029          120    10788.104    15516.589   -47034.968    317.61731   -5211.4304    -28178.35    9.0391478    7.8281317    18.039029   -6910.0919   -2436.5814 
    7250    122.92751    1276.4656    9.0392195    9.0392195    18.039172          120    10467.711    15527.971   -47002.597     212.4126   -5375.8445   -28030.774    9.0392195    7.8281938    18.039172    -7002.305   -2436.5993 
    7260    123.29747    1276.4889    9.0392747    9.0392747    18.039282          120    10162.098    15578.419    -46900.38    71.872859   -5563.4559   -27888.831    9.0392747    7.8282416    18.039282   -7053.2876    -2436.613 
    7270    123.93246    1276.5053    9.0393134    9.0393134     18.03936          120    9880.8157    15673.657    -46711.96   -77.977901   -5767.2083   -27737.123    9.0393134    7.8282751     18.03936   -7052.4957   -2436.6178 
    7280    124.80889    1276.5147    9.0393355    9.0393356    18.039404          120    9577.3457    15746.215   -46637.759    -253.8991   -5909.8956   -27518.021    9.0393355    7.8282943    18.039404   -7104.7328   -2436.6453 
    7290    125.84676    1276.5171    9.0393411    9.0393412    18.039415          120    9314.9153    15852.952   -46506.336   -432.17996   -5978.9003   -27262.553    9.0393411    7.8282991    18.039415   -7112.8227   -2436.6618 
SHAKE stats (type/ave/delta) on step 7300
  1 0.9572 2.69541e-10
  1 104.52 0
    7300     126.9102    1276.5124    9.0393301    9.0393302    18.039393          120    9070.1109     15875.71   -46422.269   -669.31211   -6032.9529   -27018.064    9.0393301    7.8282896    18.039393   -7158.8158   -2436.6907 
    7310    127.84877    1276.5007    9.0393023    9.0393024    18.039338          120    8856.6631     15887.28   -46266.232    -919.4369   -6014.5117   -26742.908    9.0393023    7.8282655    18.039338   -7174.0963   -2436.7064 
    7320    128.52687    1276.4818    9.0392579    9.0392579    18.039249          120    8691.2356    15767.414   -46159.916   -1162.5436   -5994.3747   -26373.927    9.0392579     7.828227    18.039249   -7233.7557   -2436.7301 
    7330    128.84401    1276.4558    9.0391965    9.0391966    18.039126          120    8566.7525    15625.608   -45946.736   -1424.3759   -5980.2125   -25995.542    9.0391965    7.8281739    18.039126   -7251.4587   -2436.7306 
    7340    128.75725    1276.4227    9.0391184    9.0391184     18.03897          120    8464.4523    15331.504   -45769.317   -1672.6896   -5945.4489   -25582.147    9.0391184    7.8281062     18.03897   -7324.4537   -2436.7373 
    7350    128.27335    1276.3824    9.0390232    9.0390233     18.03878          120    8398.1716    14924.741    -45575.84   -1914.6523   -5927.9156   -25146.091    9.0390232    7.8280238     18.03878   -7417.6427   -2436.7377 
    7360     127.4481    1276.3348    9.0389109    9.0389109    18.038556          120    8364.4416     14414.38   -45328.123   -2136.8799   -5952.8836   -24721.656    9.0389109    7.8279265    18.038556   -7516.4338   -2436.7268 
    7370     126.3567    1276.2799    9.0387811    9.0387812    18.038297          120    8361.6538    13818.906   -45082.861   -2306.6745   -6017.5152   -24318.193    9.0387811    7.8278141    18.038297   -7634.1003   -2436.7114 
    7380    125.08111    1276.2174    9.0386337    9.0386338    18.038003          120    8392.2955     13086.04   -44819.113   -2510.3591   -6103.1575   -23906.121    9.0386337    7.8276865    18.038003   -7780.2591   -2436.6996 
    7390    123.69118    1276.1474    9.0384684    9.0384684    18.037673          120    8433.9757    12273.306    -44556.95   -2680.4819    -6259.542   -23519.337    9.0384684    7.8275433    18.037673   -7949.8894   -2436.6941 
SHAKE stats (type/ave/delta) on step 7400
  1 0.957198 3.30419e-09
  1 104.52 0
    7400    122.25679    1276.0696    9.0382847    9.0382847    18.037307          120    8560.6386     11436.86   -44203.306   -2847.2352   -6417.1602   -23193.178    9.0382847    7.8273842    18.037307   -8068.6024   -2436.6801 
    7410    120.84983    1275.9839    9.0380824    9.0380825    18.036903          120    8810.7804    10611.179   -43742.022   -2973.2483   -6580.7304   -22893.268    9.0380824    7.8272091    18.036903   -8106.6876   -2436.6547 
    7420    119.55208    1275.8904    9.0378615    9.0378616    18.036462          120    9028.6216    9824.6712   -43235.988    -3091.704   -6800.7072    -22658.19    9.0378615    7.8270178    18.036462    -8127.565   -2436.6461 
    7430    118.44672    1275.7889     9.037622     9.037622    18.035984          120    9384.6796    9123.2333   -42604.439   -3190.9035   -6999.6678   -22505.268     9.037622    7.8268103    18.035984   -8032.1753   -2436.6314 
    7440    117.61399    1275.6797     9.037364    9.0373641    18.035469          120    9833.5878    8524.9391   -41902.847   -3246.4277   -7209.6996   -22367.321     9.037364    7.8265869    18.035469   -7848.1066    -2436.626 
    7450    117.11395    1275.5628    9.0370881    9.0370882    18.034919          120    10368.013    8084.5278   -41105.425   -3261.6661   -7417.0182   -22251.876    9.0370881     7.826348    18.034919   -7550.9614   -2436.6256 
    7460    116.97775    1275.4387     9.036795    9.0367951    18.034334          120    10988.984    7784.3007   -40224.774   -3247.6849   -7607.5272   -22187.657     9.036795    7.8260941    18.034334   -7150.4964   -2436.6341 
    7470    117.18046    1275.3077    9.0364856    9.0364857    18.033716          120    11683.407    7714.8626   -39258.397   -3175.6812   -7784.6331   -22110.416    9.0364856    7.8258262    18.033716   -6620.0425   -2436.6457 
    7480    117.65448    1275.1704    9.0361613    9.0361613    18.033069          120    12424.706    7791.8132   -38251.796   -3046.5474   -7950.1446   -22024.696    9.0361613    7.8255453    18.033069   -6011.7589   -2436.6721 
    7490    118.29581    1275.0274    9.0358234    9.0358234    18.032395          120    13171.404    8101.5453   -37175.724   -2924.9471   -8061.0404   -21945.952    9.0358234    7.8252526    18.032395   -5300.9247   -2436.7019 
SHAKE stats (type/ave/delta) on step 7500
  1 0.957196 2.03546e-09
  1 104.52 0
    7500    118.96464    1274.8793    9.0354736    9.0354736    18.031697          120     14002.62    8674.9211   -36044.894   -2705.4665     -8160.57   -21848.939    9.0354736    7.8249497    18.031697   -4455.7844   -2436.7161 
    7510    119.51259    1274.7271    9.0351139     9.035114    18.030979          120    14815.819    9448.0711   -34872.086   -2445.0615   -8195.4703   -21771.919    9.0351139    7.8246383    18.030979   -3536.0653    -2436.731 
    7520    119.78628    1274.5716    9.0347465    9.0347466    18.030246          120    15629.889    10316.103   -33714.217   -2126.5251   -8214.0322     -21739.6    9.0347465    7.8243201    18.030246   -2589.4084   -2436.7513 
    7530    119.66327    1274.4138    9.0343736    9.0343737    18.029501          120      16497.7    11342.054    -32518.67   -1822.6354   -8191.9647   -21709.594    9.0343736    7.8239971    18.029501   -1559.6388   -2436.7539 
    7540     119.0584    1274.2547    9.0339977    9.0339977    18.028751          120    17317.479    12541.851   -31304.692   -1533.1937   -8168.7279   -21665.514    9.0339977    7.8236715    18.028751   -481.78759    -2436.746 
    7550    117.94219    1274.0953    9.0336211    9.0336212       18.028          120    18101.683    13783.361   -30074.485   -1227.9878   -8113.2173   -21645.272    9.0336211    7.8233455       18.028     603.5197   -2436.7354 
    7560    116.35044    1273.9369    9.0332466    9.0332466    18.027252          120    18842.004    15086.317   -28855.783   -911.63324    -8058.668   -21627.117    9.0332466    7.8230211    18.027252    1690.8458   -2436.7197 
    7570    114.39135    1273.7803    9.0328765    9.0328766    18.026514          120    19528.601    16376.028   -27621.522   -666.89047   -7953.9227   -21665.588    9.0328765    7.8227006    18.026514    2761.0356   -2436.7039 
    7580    112.23603    1273.6267    9.0325135    9.0325135    18.025789          120    20203.736     17651.21    -26362.31   -488.08956   -7849.3401   -21753.819    9.0325135    7.8223862    18.025789    3830.8785   -2436.6829 
    7590    110.10937    1273.4771    9.0321599    9.0321599    18.025084          120    20795.168    18895.889   -24999.397   -394.45898   -7752.8097    -21869.67    9.0321599      7.82208    18.025084    4897.2199    -2436.656 
SHAKE stats (type/ave/delta) on step 7600
  1 0.957196 1.58595e-09
  1 104.52 0
    7600     108.2469    1273.3327    9.0318182    9.0318183    18.024402          120    21391.081    20085.046   -23688.633   -346.43257   -7673.0034   -22027.126    9.0318182    7.8217841    18.024402    5929.1644   -2436.6328 
    7610    106.84207    1273.1942    9.0314909     9.031491    18.023749          120    21935.301    21171.234   -22446.447   -358.11126   -7593.1794   -22239.515    9.0314909    7.8215007    18.023749     6886.696   -2436.6253 
    7620    106.01575    1273.0628    9.0311801    9.0311802    18.023128          120     22452.25    22212.257   -21204.518   -409.73053   -7547.9764   -22488.076    9.0311801    7.8212315    18.023128    7819.9964    -2436.618 
    7630    105.77513    1272.9392     9.030888    9.0308881    18.022545          120    22843.216    23092.824   -19996.631   -537.56382   -7506.8918   -22807.468     9.030888    7.8209785    18.022545    8646.4697    -2436.634 
    7640    106.01463    1272.8244    9.0306165    9.0306165    18.022003          120     23320.32    23877.915   -18785.323   -679.36843   -7509.6702    -23159.59    9.0306165    7.8207433    18.022003    9470.9707   -2436.6382 
    7650    106.54609    1272.7191    9.0303674    9.0303674    18.021506          120    23718.785    24559.007   -17621.262   -855.71039   -7507.5699   -23507.124    9.0303674    7.8205276    18.021506    10218.844   -2436.6516 
    7660    107.15633     1272.624    9.0301424    9.0301425    18.021058          120    24083.396    25132.775   -16505.884   -1051.2298   -7522.9626   -23831.454    9.0301424    7.8203328    18.021058    10903.429   -2436.6661 
    7670    107.66109    1272.5398    9.0299432    9.0299433     18.02066          120    24413.707    25580.765   -15475.542   -1250.5672   -7541.2178    -24082.44    9.0299432    7.8201603     18.02066     11506.31   -2436.6827 
    7680    107.94727     1272.467    9.0297711    9.0297712    18.020316          120    24779.366    25966.797    -14469.97   -1454.0518    -7575.553   -24200.247    9.0297711    7.8200113    18.020316    12092.064   -2436.6809 
    7690    107.98219    1272.4063    9.0296274    9.0296274     18.02003          120    25052.289    26228.121    -13599.12   -1630.6059   -7587.7703   -24251.842    9.0296274    7.8198868     18.02003     12560.43   -2436.6893 
SHAKE stats (type/ave/delta) on step 7700
  1 0.957199 3.51224e-09
  1 104.52 0
    7700    107.80687    1272.3579    9.0295131    9.0295132    18.019802          120    25299.266    26527.228   -12820.812   -1806.3474   -7643.7763   -24152.018    9.0295131    7.8197878    18.019802    13001.894   -2436.6771 
    7710    107.52694    1272.3225    9.0294293    9.0294293    18.019634          120    25465.213    26649.706   -12196.683   -1937.8574   -7655.8485   -23973.712    9.0294293    7.8197152    18.019634    13306.079   -2436.6855 
    7720    107.27861    1272.3002    9.0293766    9.0293766    18.019529          120    25647.116    26743.982   -11684.727   -2013.9847   -7692.5374   -23690.201    9.0293766    7.8196696    18.019529     13568.79   -2436.6822 
    7730    107.18583    1272.2913    9.0293555    9.0293556    18.019487          120    25736.764    26770.769   -11390.801   -2079.0415   -7688.8343   -23277.569    9.0293555    7.8196514    18.019487    13705.577   -2436.6989 
    7740    107.34895     1272.296    9.0293665    9.0293666    18.019509          120    25882.166    26742.537   -11215.182   -2043.0375    -7634.249   -22753.948    9.0293665    7.8196608    18.019509    13803.174   -2436.7092 
    7750    107.82114    1272.3142    9.0294096    9.0294097    18.019595          120    25974.939     26706.07   -11095.532   -1974.8118    -7564.059    -22190.14    9.0294096    7.8196982    18.019595    13861.826   -2436.7167 
    7760    108.61314    1272.3461     9.029485    9.0294851    18.019745          120    25965.048    26644.149   -11147.927   -1826.7327   -7420.0321   -21624.926     9.029485    7.8197635    18.019745    13820.424   -2436.7458 
    7770    109.70504    1272.3915    9.0295925    9.0295926     18.01996          120    26033.544    26554.888   -11258.568   -1610.3154   -7248.2245   -20987.078    9.0295925    7.8198566     18.01996    13776.622   -2436.7636 
    7780    111.03362    1272.4505     9.029732    9.0297321    18.020238          120    26035.385    26504.402   -11513.357   -1337.4658   -6986.7481   -20370.108     9.029732    7.8199774    18.020238    13675.477   -2436.7906 
    7790    112.52781    1272.5228    9.0299032    9.0299032     18.02058          120     26033.77    26500.232   -11866.386   -1024.3585   -6690.3373   -19757.613    9.0299032    7.8201256     18.02058    13555.872   -2436.8135 
SHAKE stats (type/ave/delta) on step 7800
  1 0.957202 6.32829e-09
  1 104.52 0
    7800    114.12233    1272.6085    9.0301057    9.0301058    18.020984          120     26000.71    26443.146    -12328.77   -673.37184   -6382.7851   -19196.177    9.0301057     7.820301    18.020984    13371.695   -2436.8453 
    7810     115.7633    1272.7072    9.0303392    9.0303393     18.02145          120    25896.857    26431.567   -12955.872   -269.05598   -5998.3986   -18676.579    9.0303392    7.8205032     18.02145    13124.184   -2436.8841 
    7820    117.41118    1272.8187    9.0306029     9.030603    18.021977          120    25776.811    26428.375   -13728.623    127.67872   -5663.5506   -18232.989    9.0306029    7.8207316    18.021977    12825.521   -2436.9235 
    7830    119.02453    1272.9427    9.0308963    9.0308963    18.022562          120     25620.32    26469.681   -14609.542    527.05594   -5328.7922    -17854.51    9.0308963    7.8209857    18.022562    12493.486   -2436.9563 
    7840     120.5494     1273.079    9.0312184    9.0312184    18.023205          120    25426.663    26542.978   -15597.692    896.59497   -5058.2715    -17572.95    9.0312184    7.8212646    18.023205    12123.983    -2436.982 
    7850    121.89789     1273.227    9.0315683    9.0315684    18.023903          120    25176.406    26656.141   -16738.024    1228.2403   -4834.7996   -17401.013    9.0315683    7.8215677    18.023903    11698.174    -2437.006 
    7860    122.95363    1273.3863    9.0319451    9.0319452    18.024655          120    24812.718     26824.87   -18050.461    1534.6045   -4651.1553   -17351.109    9.0319451     7.821894    18.024655    11195.709   -2437.0371 
    7870    123.59108    1273.5565    9.0323476    9.0323476    18.025458          120    24398.309    27076.926   -19405.843    1779.7032   -4514.9029   -17410.133    9.0323476    7.8222425    18.025458    10689.797    -2437.051 
    7880     123.7036    1273.7371    9.0327745    9.0327745     18.02631          120    23891.155     27381.11   -20838.185    2005.1974   -4467.9961   -17576.183    9.0327745    7.8226122     18.02631    10144.693   -2437.0642 
    7890    123.25302    1273.9275    9.0332245    9.0332246    18.027208          120    23399.813    27753.783   -22260.563    2193.6943   -4535.4892   -17834.071    9.0332245     7.823002    18.027208    9631.0112   -2437.0539 
SHAKE stats (type/ave/delta) on step 7900
  1 0.957205 5.02801e-09
  1 104.52 0
    7900    122.27778    1274.1272    9.0336965    9.0336966     18.02815          120    22788.547    28166.191   -23736.155       2335.2    -4604.107   -18163.537    9.0336965    7.8234107     18.02815    9072.8609   -2437.0487 
    7910    120.89047    1274.3356    9.0341891    9.0341891    18.029133          120    22104.962    28588.457   -25219.403    2425.4373    -4732.481   -18559.721    9.0341891    7.8238373    18.029133    8491.3386   -2437.0447 
    7920    119.26272    1274.5522    9.0347009    9.0347009    18.030155          120    21403.973    29045.813   -26732.703    2492.0905    -4831.451   -19012.348    9.0347009    7.8242805    18.030155    7905.6943   -2437.0408 
    7930     117.5765    1274.7764    9.0352305    9.0352306    18.031212          120    20810.187    29545.324   -28187.748    2582.1839   -5003.6445   -19476.379    9.0352305    7.8247392    18.031212    7389.2542   -2437.0131 
    7940    115.98254    1275.0076    9.0357767    9.0357768    18.032302          120    20191.457    29852.836   -29646.523    2602.6158   -5179.4159   -19987.265    9.0357767    7.8252123    18.032302    6799.2566   -2437.0133 
    7950     114.5879    1275.2453    9.0363382    9.0363383    18.033422          120    19593.642    30236.706   -31053.098    2574.6167   -5377.0267   -20418.535    9.0363382    7.8256985    18.033422    6259.0836   -2436.9959 
    7960    113.43139    1275.4889    9.0369136    9.0369136     18.03457          120    19049.375    30477.625   -32436.352    2522.1254   -5599.4149   -20829.307    9.0369136    7.8261968     18.03457    5696.8829   -2436.9881 
    7970    112.49142    1275.7379    9.0375015    9.0375016    18.035744          120    18509.176    30631.891   -33811.226    2437.3086   -5771.6687   -21212.991    9.0375015     7.826706    18.035744    5109.9469   -2436.9924 
    7980    111.69551    1275.9917    9.0381007    9.0381008    18.036939          120    18071.068    30670.566   -35145.099    2318.6483   -5972.8991   -21507.735    9.0381007    7.8272249    18.036939    4532.1785   -2436.9951 
    7990    110.96107    1276.2496    9.0387098    9.0387099    18.038155          120    17802.079    30570.875   -36349.858    2205.2287   -6158.4777   -21714.062    9.0387098    7.8277524    18.038155    4007.6986   -2436.9791 
SHAKE stats (type/ave/delta) on step 8000
  1 0.957207 6.86808e-11
  1 104.52 0
    8000    110.22037    1276.5113    9.0393275    9.0393275    18.039388          120    17517.244    30336.391   -37492.298    2065.2856   -6409.7573   -21835.455    9.0393275    7.8282873    18.039388    3453.7793   -2436.9782 
    8010    109.44753    1276.7761    9.0399525    9.0399526    18.040635          120    17329.599    30009.085   -38504.057    1903.8101   -6667.7564   -21847.022    9.0399525    7.8288286    18.040635    2944.8755   -2436.9662 
    8020    108.66028    1277.0436    9.0405836    9.0405837    18.041894          120    17184.313    29455.557    -39416.76    1785.0836   -6940.4878   -21784.907    9.0405836    7.8293751    18.041894    2407.7034   -2436.9688 
    8030    107.90536    1277.3131    9.0412196    9.0412197    18.043164          120    17141.279     28805.53   -40195.119    1654.2184   -7213.3169   -21625.145    9.0412196    7.8299259    18.043164    1917.2301    -2436.963 
    8040     107.2354    1277.5842    9.0418593    9.0418594     18.04444          120    17129.303    28055.228   -40886.911    1559.7445   -7520.6907   -21378.187    9.0418593      7.83048     18.04444    1432.5398   -2436.9611 
    8050    106.67794    1277.8565    9.0425016    9.0425017    18.045722          120    17106.608    27106.426   -41457.049    1516.9509   -7848.1436   -21084.456    9.0425016    7.8310362    18.045722    918.66155   -2436.9792 
    8060    106.22377    1278.1294    9.0431452    9.0431453    18.047007          120    17186.591     26142.21   -41897.728    1502.9339   -8208.0432   -20727.917    9.0431452    7.8315936    18.047007     477.0244     -2436.98 
    8070    105.81075    1278.4025    9.0437892    9.0437893    18.048292          120     17298.79    25148.688   -42271.186    1502.2964   -8571.5039   -20326.461    9.0437892    7.8321513    18.048292    58.763871   -2436.9822 
    8080    105.34001    1278.6753    9.0444326    9.0444327    18.049576          120    17482.554    24166.774   -42444.177    1530.8502   -8955.5025   -19895.008    9.0444326    7.8327085    18.049576   -264.94952   -2436.9643 
    8090    104.70118    1278.9476    9.0450746    9.0450746    18.050857          120    17611.231    23203.793   -42632.645    1606.6797   -9344.0444   -19463.291    9.0450746    7.8332644    18.050857   -605.87381   -2436.9629 
SHAKE stats (type/ave/delta) on step 8100
  1 0.957207 1.89948e-12
  1 104.52 0
    8100    103.81177     1279.219    9.0457143    9.0457144    18.052134          120    17722.293    22301.726   -42753.009    1705.0448   -9760.7356    -19044.15    9.0457143    7.8338185    18.052134   -909.66313   -2436.9618 
    8110    102.64938    1279.4893    9.0463512    9.0463513    18.053405          120    17909.662    21546.637   -42742.277    1863.5306   -10117.897   -18596.962    9.0463512    7.8343701    18.053405   -1095.3261    -2436.934 
    8120    101.26213    1279.7581    9.0469848    9.0469848    18.054669          120    17921.404    20840.859   -42712.014    1989.1402   -10490.666   -18203.696    9.0469848    7.8349187    18.054669   -1316.5837    -2436.933 
    8130    99.783523    1280.0253    9.0476145    9.0476145    18.055926          120    18016.877    20280.248   -42593.333    2103.5388   -10839.495   -17839.676    9.0476145    7.8354641    18.055926   -1432.0692   -2436.9101 
    8140    98.408418    1280.2909      9.04824    9.0482401    18.057174          120    18011.789    19849.213   -42536.361    2231.1702   -11203.673   -17485.043      9.04824    7.8360058    18.057174    -1558.453    -2436.906 
    8150    97.349515    1280.5545    9.0488611    9.0488612    18.058414          120    17974.114    19563.302   -42433.745    2352.6115   -11525.325   -17174.248    9.0488611    7.8365437    18.058414   -1632.1097    -2436.902 
    8160    96.797877    1280.8163    9.0494777    9.0494778    18.059644          120    17899.941    19481.446   -42285.985    2426.3724   -11825.878   -16893.805    9.0494777    7.8370777    18.059644    -1634.866   -2436.8934 
    8170    96.883045    1281.0762    9.0500897    9.0500898    18.060865          120    17802.138    19540.782   -42119.863    2463.1244   -12129.829   -16595.998    9.0500897    7.8376077    18.060865   -1592.3144   -2436.8879 
    8180    97.649271    1281.3342    9.0506972    9.0506973    18.062078          120    17669.699    19762.486   -41976.787    2520.8578   -12374.973   -16361.094    9.0506972    7.8381338    18.062078   -1514.8673   -2436.8939 
    8190    99.031108    1281.5904    9.0513003    9.0513004    18.063281          120    17457.728    20056.711   -41785.118    2553.0822   -12580.628   -16194.167    9.0513003    7.8386561    18.063281   -1423.5596   -2436.9203 
SHAKE stats (type/ave/delta) on step 8200
  1 0.957206 1.77058e-12
  1 104.52 0
    8200    100.87679    1281.8449    9.0518994    9.0518995    18.064477          120    17240.314     20479.56   -41518.348    2567.4838   -12748.215   -16094.333    9.0518994    7.8391749    18.064477   -1266.1576   -2436.9483 
    8210    102.96578    1282.0978    9.0524948    9.0524949    18.065665          120    17065.197     20978.82   -41205.108    2557.1535    -12881.01   -16027.613    9.0524948    7.8396905    18.065665   -1053.6967   -2436.9802 
    8220    105.04872    1282.3494    9.0530869     9.053087    18.066847          120    16841.951    21552.805   -40766.412    2520.9966   -12924.424   -16030.416    9.0530869    7.8402034    18.066847    -790.5518   -2437.0145 
    8230    106.88345       1282.6    9.0536765    9.0536766    18.068023          120     16634.67    22253.616   -40266.414    2424.9531   -12967.933   -16022.738    9.0536765    7.8407139    18.068023   -459.37622   -2437.0423 
    8240    108.27669    1282.8498    9.0542643    9.0542644    18.069196          120    16456.117    22914.008   -39641.059    2335.5561   -12955.591   -16048.516    9.0542643     7.841223    18.069196   -90.311301   -2437.0665 
    8250     109.1226    1283.0992    9.0548511    9.0548512    18.070367          120    16263.771    23531.214   -38963.701    2180.2026   -12968.578    -16120.37    9.0548511    7.8417312    18.070367    277.09478   -2437.0943 
    8260      109.406    1283.3487    9.0554379    9.0554379    18.071538          120    16101.212    24132.914    -38194.27    2020.0617   -12962.155   -16162.645    9.0554379    7.8422393    18.071538      679.952   -2437.1066 
    8270    109.21525    1283.5986    9.0560255    9.0560256    18.072711          120    15966.405    24656.747   -37355.053    1825.4757   -12982.593   -16194.909    9.0560255    7.8427482    18.072711    1089.3661   -2437.1055 
    8280    108.71008    1283.8492     9.056615    9.0566151    18.073888          120    15849.105     25062.92   -36610.473    1612.9662   -12990.427   -16223.349     9.056615    7.8432588    18.073888    1433.8508   -2437.1073 
    8290    108.07293    1284.1011    9.0572072    9.0572072    18.075069          120    15698.296    25316.339   -35866.283    1404.1403   -13045.774   -16250.119    9.0572072    7.8437716    18.075069    1716.1174    -2437.106 
SHAKE stats (type/ave/delta) on step 8300
  1 0.957206 8.46744e-10
  1 104.52 0
    8300    107.47203    1284.3544    9.0578026    9.0578027    18.076258          120     15573.82    25426.713   -35249.391    1163.2379   -13113.519   -16257.785    9.0578026    7.8442872    18.076258    1917.0473   -2437.1044 
    8310    107.01841    1284.6093    9.0584019    9.0584019    18.077454          120    15439.675    25373.943   -34656.675    956.90708   -13197.751   -16291.736    9.0584019    7.8448062    18.077454    2052.3146   -2437.0941 
    8320    106.74647     1284.866    9.0590052    9.0590053    18.078658          120    15224.806    25114.801   -34232.557    785.75869   -13323.164   -16307.736    9.0590052    7.8453287    18.078658    2035.6832   -2437.1045 
    8330    106.64288    1285.1245    9.0596126    9.0596127     18.07987          120    15052.147    24746.654   -33846.681    669.73787   -13462.755   -16317.937    9.0596126    7.8458548     18.07987    1984.0401   -2437.0988 
    8340    106.67931    1285.3847     9.060224     9.060224     18.08109          120    14920.824    24221.215   -33531.482    580.62642   -13594.387   -16319.489     9.060224    7.8463842     18.08109    1870.1857    -2437.089 
    8350    106.85094    1285.6464     9.060839     9.060839    18.082317          120    14770.616    23542.849   -33335.758    532.51828   -13800.705   -16310.733     9.060839    7.8469168    18.082317    1659.2355   -2437.0924 
    8360    107.19444    1285.9096    9.0614571    9.0614572    18.083551          120    14583.268    22787.693    -33248.97    582.27734   -13963.268   -16279.869    9.0614571    7.8474521    18.083551    1373.9969   -2437.1057 
    8370    107.76202    1286.1738    9.0620777    9.0620778    18.084789          120    14309.171    21905.212   -33205.646    743.50782   -14087.228   -16236.149    9.0620777    7.8479896    18.084789    1002.9122   -2437.1416 
    8380    108.60531    1286.4387    9.0626999       9.0627    18.086031          120    14139.249    21151.427   -33192.203    896.87607   -14177.038   -16187.614    9.0626999    7.8485285    18.086031    699.49087   -2437.1476 
    8390    109.74025    1286.7041     9.063323    9.0633231    18.087274          120    13871.463    20315.284   -33302.883    1159.3638   -14248.441   -16101.464     9.063323     7.849068    18.087274    294.62115   -2437.1923 
SHAKE stats (type/ave/delta) on step 8400
  1 0.957207 2.17834e-10
  1 104.52 0
    8400    111.10833    1286.9694     9.063946    9.0639461    18.088518          120    13722.851    19541.532   -33345.026    1486.8044   -14267.008   -15953.191     9.063946    7.8496076    18.088518   -26.880984   -2437.2153 
    8410    112.57781    1287.2345    9.0645682    9.0645683    18.089759          120    13550.203    18860.617   -33402.461    1849.9192   -14295.985   -15774.944    9.0645682    7.8501464    18.089759   -330.54722   -2437.2402 
    8420    113.95793    1287.4989    9.0651888    9.0651889    18.090998          120    13350.299    18208.469   -33470.299    2238.3456   -14286.669    -15601.95    9.0651888    7.8506839    18.090998   -637.17701   -2437.2754 
    8430    115.02964    1287.7624    9.0658072    9.0658073    18.092232          120     13272.91    17703.975   -33412.495    2657.4291    -14297.96   -15422.015    9.0658072    7.8512194    18.092232   -811.87016   -2437.2754 
    8440    115.59973    1288.0248    9.0664228    9.0664229    18.093461          120    13153.106    17169.563   -33414.596    3042.4095     -14223.2   -15240.362    9.0664228    7.8517526    18.093461   -1030.6422   -2437.2976 
    8450    115.52378    1288.2858    9.0670353    9.0670354    18.094683          120    13147.494    16795.979   -33383.509    3400.8196    -14149.01   -15066.009    9.0670353     7.852283    18.094683   -1146.6788   -2437.2877 
    8460    114.74961    1288.5454    9.0676442    9.0676443    18.095898          120    13070.543    16427.322   -33347.621    3725.0437   -14026.554   -14920.805    9.0676442    7.8528104    18.095898   -1283.2517     -2437.29 
    8470    113.33775    1288.8034    9.0682494    9.0682495    18.097106          120    13031.294    16047.542   -33219.656      3982.67   -13944.607   -14739.526    9.0682494    7.8533344    18.097106   -1380.2734   -2437.2782 
    8480    111.44667    1289.0597    9.0688506    9.0688507    18.098306          120    13045.818    15711.281   -33081.465    4177.3985   -13815.887   -14633.792    9.0688506    7.8538551    18.098306   -1441.4554   -2437.2519 
    8490    109.31513    1289.3143    9.0694476    9.0694476    18.099497          120    12990.663    15353.306    -32994.84    4275.8688   -13738.491   -14569.425    9.0694476    7.8543721    18.099497   -1550.2906   -2437.2349 
SHAKE stats (type/ave/delta) on step 8500
  1 0.957206 1.22454e-10
  1 104.52 0
    8500    107.22655    1289.5671    9.0700401    9.0700402     18.10068          120    12936.771     14996.88    -32863.18    4301.8985    -13626.93   -14550.135    9.0700401    7.8548853     18.10068   -1643.1762   -2437.2053 
    8510    105.47262    1289.8179    9.0706281    9.0706281    18.101853          120    12865.364    14606.649   -32826.137    4232.0638   -13508.148   -14646.453    9.0706281    7.8553944    18.101853   -1784.7079   -2437.1811 
    8520     104.2869    1290.0666     9.071211    9.0712111    18.103016          120    12793.635    14144.718   -32906.666    4116.1464   -13382.429   -14798.305     9.071211    7.8558993    18.103016    -1989.438   -2437.1654 
    8530    103.79973     1290.313    9.0717885    9.0717886    18.104169          120    12624.843    13607.096   -33133.099    3960.9769   -13256.276   -14988.003    9.0717885    7.8563994    18.104169   -2300.3868   -2437.1717 
    8540    103.99955    1290.5568    9.0723598    9.0723599    18.105309          120     12424.28     13060.89   -33488.645    3753.8423   -13139.826   -15306.566    9.0723598    7.8568942    18.105309   -2667.8249    -2437.183 
    8550     104.7406    1290.7976    9.0729241    9.0729242    18.106435          120    12175.555    12455.244    -33979.55     3492.196   -13015.709   -15700.554    9.0729241    7.8573828    18.106435   -3116.2504   -2437.2088 
    8560    105.77863     1291.035    9.0734803    9.0734803    18.107545          120    11965.639    11922.059   -34531.481    3256.2051   -12904.716   -16153.092    9.0734803    7.8578645    18.107545   -3547.9275   -2437.2195 
    8570    106.83469    1291.2685    9.0740273    9.0740274    18.108637          120    11768.377    11341.031   -35216.392    2998.6485   -12754.195   -16659.486    9.0740273    7.8583382    18.108637   -4035.6615   -2437.2429 
    8580    107.66007    1291.4977    9.0745641    9.0745641    18.109708          120    11609.914    10801.681    -35868.82    2751.9151    -12625.71    -17210.21    9.0745641    7.8588031    18.109708   -4485.7415   -2437.2517 
    8590    108.09281     1291.722    9.0750895    9.0750896    18.110756          120    11504.444    10287.129   -36665.895    2504.7313       -12425   -17720.277    9.0750895    7.8592581    18.110756   -4958.1074   -2437.2717 
SHAKE stats (type/ave/delta) on step 8600
  1 0.957205 1.16055e-09
  1 104.52 0
    8600    108.07656    1291.9411    9.0756026    9.0756026     18.11178          120    11481.483    9857.9097   -37379.619    2271.6502   -12219.058   -18211.813    9.0756026    7.8597024     18.11178   -5346.7421   -2437.2741 
    8610    107.64753    1292.1545    9.0761023    9.0761023    18.112777          120    11565.132    9459.2444   -38063.323    2042.2542    -11995.86   -18701.858    9.0761023    7.8601352    18.112777    -5679.649   -2437.2753 
    8620    106.89615    1292.3619    9.0765878    9.0765879    18.113747          120    11733.133    9122.5352   -38675.625    1819.8367   -11736.264   -19146.024    9.0765878    7.8605557    18.113747   -5939.9856   -2437.2738 
    8630    105.92965    1292.5631    9.0770587    9.0770588    18.114686          120    12011.216    8850.7712   -39186.715    1622.0175   -11437.207   -19542.098    9.0770587    7.8609635    18.114686   -6108.2429   -2437.2677 
    8640    104.83333    1292.7578    9.0775145    9.0775146    18.115596          120    12404.921     8693.262   -39527.767     1465.347   -11069.053   -19849.874    9.0775145    7.8613583    18.115596   -6143.1944   -2437.2467 
    8650    103.64612    1292.9461    9.0779552    9.0779552    18.116475          120    12862.929    8548.1284   -39790.048    1302.2955     -10665.7   -20113.677    9.0779552    7.8617399    18.116475   -6126.3303   -2437.2372 
    8660     102.3569    1293.1279    9.0783807    9.0783808    18.117324          120     13395.17    8460.0932   -39906.982    1152.9945   -10199.665   -20303.523    9.0783807    7.8621084    18.117324   -6017.2394   -2437.2259 
    8670    100.93115    1293.3034    9.0787914    9.0787914    18.118144          120    13952.541    8409.7469   -39879.473     1004.371   -9682.0529   -20413.077    9.0787914     7.862464    18.118144   -5839.0615   -2437.2177 
    8680    99.329308    1293.4728    9.0791877    9.0791877    18.118935          120    14553.753    8412.4392   -39703.153    872.71694   -9089.5588   -20442.287    9.0791877    7.8628072    18.118935    -5578.987   -2437.2029 
    8690    97.530566    1293.6363    9.0795702    9.0795703    18.119698          120    15144.821    8435.6422     -39394.3    740.58567   -8440.3345   -20384.898    9.0795702    7.8631385    18.119698   -5271.2791     -2437.19 
SHAKE stats (type/ave/delta) on step 8700
  1 0.957204 3.84544e-10
  1 104.52 0
    8700    95.570477    1293.7942    9.0799397    9.0799398    18.120436          120    15739.274    8506.1075   -38975.787    646.46932   -7774.4538   -20276.743    9.0799397    7.8634585    18.120436   -4910.1352   -2437.1721 
    8710    93.534523     1293.947    9.0802971    9.0802972    18.121149          120    16309.337    8621.5254   -38465.403    518.41393   -7063.9977    -20135.94    9.0802971    7.8637681    18.121149   -4511.5137   -2437.1479 
    8720    91.555347     1294.095    9.0806433    9.0806434     18.12184          120    16762.827    8751.2478   -37921.967    399.39998   -6325.4297    -19965.03    9.0806433    7.8640679     18.12184    -4135.964   -2437.1325 
    8730    89.785516    1294.2386    9.0809792    9.0809793     18.12251          120    17227.608    8923.0266    -37299.29    260.83998   -5602.0037   -19827.736    9.0809792    7.8643588     18.12251   -3716.2185   -2437.1004 
    8740    88.359308    1294.3783    9.0813059     9.081306    18.123162          120     17623.99    9036.9539   -36752.417    103.79221   -4896.8863   -19649.598    9.0813059    7.8646417    18.123162   -3363.8243   -2437.0849 
    8750    87.360662    1294.5144    9.0816241    9.0816242    18.123797          120    17905.462    9160.3307   -36384.496   -36.056917   -4260.7784   -19441.667    9.0816241    7.8649173    18.123797   -3106.2342   -2437.0901 
    8760    86.808276    1294.6471    9.0819346    9.0819346    18.124417          120    18103.011    9351.7142   -36123.872   -194.57627   -3686.6231   -19275.645    9.0819346    7.8651861    18.124417   -2889.7159   -2437.0965 
    8770      86.6534    1294.7768    9.0822377    9.0822378    18.125022          120    18244.126    9571.5122    -35907.07   -345.22127   -3185.9707   -19130.133    9.0822377    7.8654487    18.125022    -2697.144   -2437.0962 
    8780     86.81474    1294.9036    9.0825341    9.0825342    18.125613          120    18346.357    9803.3075   -35845.714   -524.05002   -2862.6972   -19082.678    9.0825341    7.8657054    18.125613   -2565.3499   -2437.0998 
    8790    87.190575    1295.0276     9.082824    9.0828241    18.126192          120     18295.76    10053.689   -35949.898   -692.14764   -2576.2821   -18975.589     9.082824    7.8659564    18.126192   -2533.4832   -2437.1187 
SHAKE stats (type/ave/delta) on step 8800
  1 0.957203 1.83292e-11
  1 104.52 0
    8800    87.696538    1295.1488    9.0831075    9.0831076    18.126758          120    18159.234    10395.318   -36181.893   -879.54399     -2414.52   -18915.059    9.0831075     7.866202    18.126758   -2542.4469   -2437.1304 
    8810    88.277887    1295.2674    9.0833846    9.0833847    18.127311          120    17928.031    10767.025     -36570.5   -1087.3274     -2339.24   -18816.761    9.0833846    7.8664419    18.127311   -2625.1481   -2437.1477 
    8820    88.908274    1295.3831    9.0836551    9.0836552     18.12785          120    17618.261    11171.716   -37094.425   -1295.6293   -2374.8529   -18719.606    9.0836551    7.8666761     18.12785   -2768.1492    -2437.166 
    8830    89.584451    1295.4958    9.0839186    9.0839187    18.128376          120    17225.242    11578.893   -37734.559   -1509.1375   -2510.4242   -18585.594    9.0839186    7.8669044    18.128376   -2976.8076   -2437.1897 
    8840    90.308517    1295.6054    9.0841747    9.0841748    18.128887          120     16755.47     12025.93   -38372.884   -1725.3221   -2744.5316     -18493.5    9.0841747    7.8671262    18.128887   -3197.1612    -2437.202 
    8850    91.064417    1295.7116    9.0844229     9.084423    18.129383          120    16198.374     12458.38   -39071.948   -1967.2321   -3021.7603   -18375.156    9.0844229    7.8673411    18.129383   -3471.7313   -2437.2203 
    8860    91.812865    1295.8141    9.0846625    9.0846625    18.129861          120    15574.054    12850.875   -39757.327   -2209.0555    -3367.026   -18239.461    9.0846625    7.8675486    18.129861   -3777.4661   -2437.2405 
    8870    92.484375    1295.9126    9.0848928    9.0848928     18.13032          120     14898.18    13277.696   -40378.397   -2451.1255   -3737.2924    -18089.59    9.0848928     7.867748     18.13032    -4067.507    -2437.252 
    8880    92.986054    1296.0069    9.0851131    9.0851131     18.13076          120    14194.583    13627.337   -40896.455   -2727.4003   -4123.4647   -17933.162    9.0851131    7.8679388     18.13076   -4358.1784   -2437.2636 
    8890    93.219748    1296.0966    9.0853227    9.0853228    18.131178          120     13438.64    13973.426   -41249.373   -3009.4832   -4490.7796   -17793.952    9.0853227    7.8681204    18.131178   -4612.4357   -2437.2686 
SHAKE stats (type/ave/delta) on step 8900
  1 0.957202 8.47777e-12
  1 104.52 0
    8900    93.110152    1296.1815    9.0855211    9.0855212    18.131574          120    12708.122    14258.601   -41468.191   -3296.8534   -4814.0051   -17612.166    9.0855211    7.8682922    18.131574   -4833.8228   -2437.2701 
    8910    92.621949    1296.2614    9.0857077    9.0857078    18.131947          120    11959.125    14527.719   -41519.453   -3576.7259   -5106.1658   -17419.266    9.0857077    7.8684538    18.131947   -5010.8697   -2437.2691 
    8920    91.775693    1296.3361    9.0858822    9.0858822    18.132295          120    11217.674    14748.819   -41419.334   -3857.8114   -5342.8679   -17203.593    9.0858822    7.8686048    18.132295   -5150.9472   -2437.2687 
    8930    90.655873    1296.4054    9.0860441    9.0860442    18.132618          120    10520.697    14949.372   -41142.176   -4104.0762   -5547.8483    -17002.21    9.0860441    7.8687451    18.132618   -5224.0356   -2437.2592 
    8940     89.39571    1296.4693    9.0861934    9.0861935    18.132916          120    9906.6051    15185.557    -40724.96   -4330.3823   -5714.4294   -16779.241    9.0861934    7.8688744    18.132916   -5210.9328   -2437.2341 
    8950    88.145358    1296.5278    9.0863301    9.0863301    18.133189          120    9315.6952    15256.896   -40246.619   -4492.3172   -5822.9038   -16608.971    9.0863301    7.8689927    18.133189    -5224.676   -2437.2287 
    8960     87.02553    1296.5809    9.0864541    9.0864541    18.133436          120    8829.2226    15333.493   -39738.705   -4608.2624   -5926.4755   -16444.495    9.0864541    7.8691001    18.133436   -5191.9964   -2437.2157 
    8970    86.099854    1296.6286    9.0865656    9.0865657    18.133659          120    8430.5978    15393.754   -39137.252   -4691.2524   -6002.7087   -16252.324    9.0865656    7.8691967    18.133659   -5104.3001   -2437.1913 
    8980    85.358182    1296.6711    9.0866648    9.0866649    18.133857          120     8047.909    15364.413   -38584.977   -4725.8734   -6015.2729   -16116.736    9.0866648    7.8692826    18.133857   -5057.5516   -2437.1854 
    8990    84.740507    1296.7084    9.0867518    9.0867519     18.13403          120    7765.2772    15304.249   -38022.865   -4703.8398   -5986.7304   -16029.449    9.0867518     7.869358     18.13403   -4984.4462   -2437.1696 
SHAKE stats (type/ave/delta) on step 9000
  1 0.957201 2.93806e-10
  1 104.52 0
    9000    84.170018    1296.7405    9.0868268    9.0868269     18.13418          120    7533.5136    15211.331   -37559.601   -4651.0569   -5968.4452   -15937.789    9.0868268     7.869423     18.13418   -4938.2521   -2437.1614 
    9010    83.590954    1296.7675      9.08689      9.08689    18.134306          120     7376.045    14989.894   -37185.067   -4594.6084    -5952.784   -15840.293      9.08689    7.8694776    18.134306   -4939.7094   -2437.1653 
    9020    83.004061    1296.7894    9.0869413    9.0869413    18.134408          120    7287.2715    14803.358   -36861.784   -4507.7606   -5945.7134   -15695.026    9.0869413     7.869522    18.134408   -4923.7184   -2437.1581 
    9030    82.464882    1296.8063    9.0869807    9.0869808    18.134487          120    7301.2427    14540.553   -36590.026   -4392.1495   -5948.0744    -15555.11    9.0869807    7.8695562    18.134487   -4916.0768   -2437.1497 
    9040    82.060278    1296.8182    9.0870084    9.0870084    18.134542          120    7352.9669    14221.115   -36475.822   -4272.6336   -5986.8125   -15341.826    9.0870084    7.8695802    18.134542   -4967.2467   -2437.1562 
    9050     81.87602    1296.8249    9.0870241    9.0870242    18.134574          120    7491.8584     14001.04   -36413.907   -4213.8735   -6019.9759   -15112.459    9.0870241    7.8695938    18.134574   -4973.6696   -2437.1435 
    9060     81.96279    1296.8266     9.087028    9.0870281    18.134582          120    7733.5731    13635.859   -36400.449   -4137.9833   -6127.7135   -14860.863     9.087028    7.8695972    18.134582   -5010.3389   -2437.1394 
    9070    82.298105    1296.8231    9.0870199      9.08702    18.134565          120    7994.8896    13260.605   -36511.141   -4094.6827   -6254.8387   -14553.752    9.0870199    7.8695902    18.134565   -5085.2154   -2437.1463 
    9080    82.786744    1296.8145    9.0869997    9.0869998    18.134525          120    8287.6698    12876.525   -36709.772   -4065.1168   -6400.9264   -14232.909    9.0869997    7.8695727    18.134525   -5181.8594   -2437.1609 
    9090    83.276652    1296.8005    9.0869672    9.0869672     18.13446          120    8598.5271    12461.929   -36971.258   -4046.1961   -6579.3922   -13917.645    9.0869672    7.8695445     18.13446   -5303.6006   -2437.1843 
SHAKE stats (type/ave/delta) on step 9100
  1 0.957199 4.16462e-10
  1 104.52 0
    9100    83.594054    1296.7812     9.086922    9.0869221     18.13437          120    8918.7611    12091.746   -37268.677   -4081.9676   -6808.7055     -13552.9     9.086922    7.8695054     18.13437   -5419.3898   -2437.2087 
    9110    83.577243    1296.7564     9.086864    9.0868641    18.134254          120    9351.4261    11771.913   -37462.256   -4132.0551   -7049.8247   -13197.155     9.086864    7.8694551    18.134254   -5446.3058   -2437.2084 
    9120    83.123233     1296.726     9.086793    9.0867931    18.134113          120    9746.2687    11491.666   -37630.985   -4173.9305   -7287.5368   -12860.507     9.086793    7.8693937    18.134113   -5464.3501   -2437.2088 
    9130    82.222211    1296.6901    9.0867091    9.0867092    18.133945          120    10125.838    11221.494    -37738.92   -4259.6434   -7557.9881   -12502.125    9.0867091     7.869321    18.133945   -5463.8628   -2437.2088 
    9140    80.960041    1296.6486    9.0866123    9.0866123    18.133752          120    10528.738    11004.376   -37703.678   -4347.8862    -7772.426   -12120.942    9.0866123    7.8692371    18.133752   -5390.1882   -2437.1915 
    9150    79.516757    1296.6017    9.0865027    9.0865028    18.133533          120    10872.265    10821.702   -37543.577   -4419.1152   -8021.7703   -11791.922    9.0865027    7.8691423    18.133533   -5283.2034   -2437.1714 
    9160    78.111151    1296.5495    9.0863807    9.0863808     18.13329          120    11192.053    10673.863   -37354.492   -4475.3091   -8256.2394   -11501.676    9.0863807    7.8690366     18.13329   -5162.8585   -2437.1571 
    9170    76.951497    1296.4921    9.0862466    9.0862467    18.133022          120    11465.761    10578.788   -37011.395   -4503.9397    -8487.172   -11266.186    9.0862466    7.8689205    18.133022   -4988.9485   -2437.1374 
    9180    76.184853    1296.4296    9.0861007    9.0861008    18.132731          120    11690.847    10520.164   -36717.214   -4512.1338   -8699.8166   -11104.883    9.0861007    7.8687941    18.132731   -4835.4011   -2437.1346 
    9190    75.853472    1296.3623    9.0859435    9.0859436    18.132417          120     11855.47    10506.466   -36387.055   -4515.2366   -8881.6926   -11007.758    9.0859435     7.868658    18.132417   -4675.0398   -2437.1418 
SHAKE stats (type/ave/delta) on step 9200
  1 0.957198 9.50212e-11
  1 104.52 0
    9200    75.893836    1296.2903    9.0857753    9.0857754    18.132082          120    11924.725     10526.67   -36024.133   -4499.0237   -9075.7571   -11011.236    9.0857753    7.8685123    18.132082    -4524.246   -2437.1628 
    9210    76.147224    1296.2138    9.0855966    9.0855967    18.131725          120    12054.874    10652.633   -35646.829   -4412.4379   -9220.5703   -11112.291    9.0855966    7.8683575    18.131725   -4313.1072   -2437.1747 
    9220    76.421243    1296.1331    9.0854078    9.0854079    18.131348          120     12193.31     10908.32   -35220.704   -4303.4542   -9316.3866   -11306.363    9.0854078    7.8681941    18.131348   -4039.6914    -2437.177 
    9230    76.542249    1296.0483    9.0852097    9.0852097    18.130953          120    12318.097    11201.517   -34797.917   -4150.7837   -9399.0299   -11566.645    9.0852097    7.8680225    18.130953   -3759.4342   -2437.1842 
    9240    76.398164    1295.9597    9.0850028    9.0850029     18.13054          120    12421.075     11484.15   -34384.735   -3931.0932   -9470.1655   -11864.646    9.0850028    7.8678433     18.13054   -3493.1697   -2437.2041 
    9250    75.976766    1295.8677    9.0847879    9.0847879    18.130111          120    12582.451    11864.615   -34003.456   -3738.1827   -9504.2717   -12295.259    9.0847879    7.8676572    18.130111   -3185.4634   -2437.2116 
    9260    75.333641    1295.7726    9.0845656    9.0845657    18.129667          120    12763.125    12309.087   -33570.339   -3514.4421    -9499.655   -12740.218    9.0845656    7.8674647    18.129667   -2832.7088   -2437.2087 
    9270    74.581559    1295.6748    9.0843369     9.084337    18.129211          120    12983.033    12770.746   -33152.809   -3275.4689   -9478.2586   -13218.443    9.0843369    7.8672666    18.129211   -2466.3433   -2437.2041 
    9280    73.850631    1295.5745    9.0841026    9.0841027    18.128743          120    13238.984    13216.102   -32751.884   -3032.8944   -9442.9689    -13718.36    9.0841026    7.8670637    18.128743   -2098.9327   -2437.2013 
    9290    73.249967    1295.4723    9.0838636    9.0838637    18.128267          120    13597.803    13700.064   -32290.133   -2801.4554   -9394.0677   -14195.192    9.0838636    7.8668568    18.128267   -1664.0886   -2437.1799 
SHAKE stats (type/ave/delta) on step 9300
  1 0.957197 4.76447e-11
  1 104.52 0
    9300    72.833185    1295.3685     9.083621    9.0836211    18.127782          120    13923.527    14089.118   -31925.843   -2531.7629   -9372.0009   -14668.984     9.083621    7.8666467    18.127782   -1304.3989   -2437.1862 
    9310    72.591732    1295.2635    9.0833756    9.0833757    18.127293          120    14306.369    14435.135   -31577.354   -2269.3335   -9312.9776   -15152.063    9.0833756    7.8664341    18.127293   -945.28333   -2437.1948 
    9320    72.467632    1295.1577    9.0831283    9.0831284    18.126799          120     14690.82    14784.377    -31169.45   -2045.6934   -9240.9089   -15600.379    9.0831283      7.86622    18.126799   -564.75128   -2437.1994 
    9330    72.367204    1295.0515      9.08288    9.0828801    18.126304          120    15139.004    15060.957   -30734.971   -1822.5391   -9199.6541   -15991.623      9.08288    7.8660049    18.126304   -178.33642   -2437.2045 
    9340    72.201368    1294.9453    9.0826316    9.0826317    18.125808          120    15625.721    15291.374   -30204.967   -1611.6463   -9187.6088   -16359.435    9.0826316    7.8657898    18.125808    237.37594   -2437.2015 
    9350    71.915162    1294.8394    9.0823841    9.0823842    18.125314          120    16083.712    15428.601   -29687.507   -1415.9943   -9159.6291    -16678.34    9.0823841    7.8655755    18.125314    608.26865   -2437.2113 
    9360    71.506639    1294.7343    9.0821384    9.0821385    18.124824          120    16538.743    15599.949   -29124.326   -1266.9364   -9151.6006   -16940.226    9.0821384    7.8653627    18.124824    1004.7886   -2437.2089 
    9370     71.02863    1294.6304    9.0818954    9.0818955    18.124339          120    16991.379    15728.895   -28530.991   -1164.5573   -9139.3118   -17196.195    9.0818954    7.8651522    18.124339    1396.4276   -2437.2036 
    9380    70.567212     1294.528     9.081656    9.0816561    18.123861          120    17267.555    15775.203   -28057.665   -1086.9407   -9124.2211   -17423.226     9.081656    7.8649449    18.123861    1661.6974   -2437.2326 
    9390    70.211723    1294.4275    9.0814209     9.081421    18.123392          120    17597.374    15860.711   -27552.133   -1033.3356    -9193.744   -17651.867    9.0814209    7.8647413    18.123392    1968.6505   -2437.2347 
SHAKE stats (type/ave/delta) on step 9400
  1 0.957198 1.32217e-10
  1 104.52 0
    9400    70.020427    1294.3291    9.0811908    9.0811909    18.122933          120    17856.207    15932.562   -27116.937    -1014.855   -9304.6042   -17873.449    9.0811908    7.8645421    18.122933    2223.9443   -2437.2386 
    9410    70.007047    1294.2331    9.0809664    9.0809664    18.122485          120    18046.575    15981.703   -26772.011   -1027.4906   -9442.8314   -18106.533    9.0809664    7.8643476    18.122485    2418.7557   -2437.2447 
    9420    70.139854    1294.1397    9.0807479     9.080748    18.122049          120     18149.34     16002.29   -26557.464   -1044.6282   -9590.4949   -18365.948    9.0807479    7.8641584    18.122049    2531.3886   -2437.2587 
    9430     70.35413     1294.049    9.0805357    9.0805358    18.121625          120    18205.176    15922.772   -26445.519   -1092.4042   -9777.8921    -18658.28    9.0805357    7.8639747    18.121625    2560.8098   -2437.2796 
    9440    70.579481     1293.961    9.0803299      9.08033    18.121214          120    18130.007    15925.473   -26469.759   -1146.9517   -10032.239   -18908.231    9.0803299    7.8637965    18.121214    2528.5737   -2437.3008 
    9450    70.763164    1293.8757    9.0801304    9.0801305    18.120816          120    17973.684    15918.166   -26584.525   -1236.5717   -10291.586   -19180.277    9.0801304    7.8636237    18.120816     2435.775   -2437.3258 
    9460    70.879607     1293.793     9.079937    9.0799371     18.12043          120    17860.614    15940.174   -26798.059   -1344.3482   -10486.536    -19411.69     9.079937    7.8634562     18.12043    2334.2431   -2437.3352 
    9470    70.926579    1293.7129    9.0797494    9.0797495    18.120056          120     17739.65    15977.054   -27039.852   -1417.5442   -10698.483   -19656.944    9.0797494    7.8632937    18.120056    2225.6173   -2437.3361 
    9480    70.913186     1293.635    9.0795673    9.0795674    18.119692          120    17485.433    16006.872   -27396.722   -1517.4615   -10903.015    -19903.13    9.0795673     7.863136    18.119692    2031.8609   -2437.3563 
    9490    70.844872    1293.5594    9.0793903    9.0793903    18.119339          120    17262.906    16206.268   -27755.188   -1656.5403   -11008.014   -20093.524    9.0793903    7.8629827    18.119339     1904.662   -2437.3474 
SHAKE stats (type/ave/delta) on step 9500
  1 0.957198 5.74252e-10
  1 104.52 0
    9500    70.714847    1293.4857     9.079218    9.0792181    18.118996          120    17057.131    16347.152   -28063.738   -1764.7524   -11098.378   -20217.585     9.079218    7.8628335    18.118996     1780.182   -2437.3401 
    9510    70.502714     1293.414    9.0790503    9.0790503    18.118661          120     16786.61    16546.884   -28382.704     -1863.14   -11164.331   -20283.087    9.0790503    7.8626883    18.118661    1650.2635   -2437.3364 
    9520    70.177569    1293.3441    9.0788867    9.0788867    18.118334          120    16502.532    16720.215   -28685.537   -1977.2172   -11181.242   -20306.536    9.0788867    7.8625466    18.118334    1512.4031   -2437.3385 
    9530    69.715362    1293.2758    9.0787269     9.078727    18.118015          120     16169.09    16944.949   -28885.308   -2073.0945   -11114.379   -20234.374    9.0787269    7.8624082    18.118015     1409.577    -2437.337 
    9540    69.103501    1293.2091    9.0785707    9.0785708    18.117704          120     15879.29    17040.399   -29069.464   -2182.0176   -11051.484     -20089.5    9.0785707    7.8622729    18.117704    1283.4084   -2437.3493 
    9550    68.356753    1293.1438    9.0784178    9.0784179    18.117399          120    15611.549    17192.793   -29067.608    -2358.682   -10918.395   -19941.758    9.0784178    7.8621405    18.117399    1245.5781    -2437.337 
    9560    67.520406    1293.0798    9.0782681    9.0782682      18.1171          120    15335.586    17300.766    -29040.29   -2552.5345   -10729.549   -19725.911    9.0782681    7.8620109      18.1171    1198.6874   -2437.3354 
    9570    66.668793    1293.0171    9.0781214    9.0781215    18.116807          120    15125.367    17324.019   -28917.376   -2780.3047   -10526.709   -19434.566    9.0781214    7.8618839    18.116807    1177.3368   -2437.3336 
    9580    65.886039    1292.9557    9.0779778    9.0779779     18.11652          120    14920.724    17371.084   -28696.209   -3016.1934   -10293.666   -19156.472    9.0779778    7.8617595     18.11652    1198.5332   -2437.3261 
    9590    65.251618    1292.8957    9.0778373    9.0778373     18.11624          120    14827.862    17408.067    -28406.14   -3334.8715   -10051.282   -18830.052    9.0778373    7.8616378     18.11624    1276.5964   -2437.3054 
SHAKE stats (type/ave/delta) on step 9600
  1 0.957199 7.50185e-11
  1 104.52 0
    9600    64.822326     1292.837    9.0776999       9.0777    18.115966          120    14692.787    17273.008   -28075.452   -3608.7358   -9802.3542    -18493.61    9.0776999    7.8615188    18.115966    1296.7811    -2437.313 
    9610    64.616206    1292.7797    9.0775658    9.0775659    18.115698          120    14664.802    17150.692   -27689.172   -3920.8362   -9534.0573   -18176.323    9.0775658    7.8614027    18.115698    1375.4407   -2437.3098 
    9620    64.588861    1292.7239    9.0774352    9.0774353    18.115438          120    14653.187    17007.478   -27293.942   -4249.7346   -9316.3728   -17877.832    9.0774352    7.8612896    18.115438    1455.5744   -2437.3125 
    9630    64.651287    1292.6697    9.0773083    9.0773083    18.115184          120    14669.474    16835.482   -26973.562   -4575.1346   -9144.3373   -17628.253    9.0773083    7.8611796    18.115184    1510.4647   -2437.3256 
    9640    64.688524     1292.617     9.077185    9.0771851    18.114938          120    14762.959    16660.273   -26661.456   -4888.1617   -8975.8581   -17419.068     9.077185    7.8610729    18.114938    1587.2585   -2437.3321 
    9650    64.591408    1292.5661    9.0770658    9.0770658      18.1147          120    14911.901    16461.843   -26429.004   -5196.4524   -8834.1517    -17236.38    9.0770658    7.8609696      18.1147    1648.2468   -2437.3413 
    9660    64.285443    1292.5169    9.0769506    9.0769507     18.11447          120    15127.157    16282.659   -26222.305   -5460.4728   -8713.2413   -17106.296    9.0769506    7.8608699     18.11447    1729.1701   -2437.3389 
    9670    63.747377    1292.4695    9.0768397    9.0768397    18.114249          120    15423.519    16087.539   -26191.607    -5665.563   -8681.0687   -16992.987    9.0768397    7.8607738    18.114249    1773.1508   -2437.3432 
    9680    63.005024     1292.424    9.0767331    9.0767332    18.114036          120    15738.924    15957.834   -26220.435   -5851.2574   -8654.6944   -16961.421    9.0767331    7.8606815    18.114036    1825.4412   -2437.3381 
    9690    62.129158    1292.3804    9.0766311    9.0766312    18.113833          120    16274.284    15849.385   -26321.454   -5969.8853    -8630.552   -16952.252    9.0766311    7.8605932    18.113833    1934.0716   -2437.3028 
SHAKE stats (type/ave/delta) on step 9700
  1 0.957199 5.29331e-10
  1 104.52 0
    9700    61.217551    1292.3388    9.0765338    9.0765338    18.113639          120    16673.029     15762.48   -26551.387   -6061.0779   -8683.0931   -16987.589    9.0765338    7.8605089    18.113639    1961.3737   -2437.2942 
    9710    60.376195    1292.2993    9.0764412    9.0764413    18.113454          120    17081.714    15685.896   -26887.697    -6098.409   -8756.5844   -16987.573    9.0764412    7.8604288    18.113454    1959.9709   -2437.2899 
    9720    59.703298    1292.2618    9.0763535    9.0763536    18.113279          120     17549.11    15668.446   -27291.077   -6060.1759   -8888.0583   -17051.956    9.0763535    7.8603528    18.113279     1975.493     -2437.28 
    9730     59.26796    1292.2264    9.0762706    9.0762706    18.113113          120    18011.894    15640.252   -27722.336   -5949.6708   -9062.7115    -17122.14    9.0762706     7.860281    18.113113    1976.6033   -2437.2776 
    9740     59.11225     1292.193    9.0761925    9.0761925    18.112957          120    18451.578    15618.353    -28212.47   -5830.3529   -9266.0388   -17201.896    9.0761925    7.8602133    18.112957     1952.487   -2437.2871 
    9750    59.254223    1292.1617    9.0761191    9.0761192    18.112811          120    18919.007    15689.883   -28648.117   -5682.4485    -9527.852   -17275.798    9.0761191    7.8601498    18.112811    1986.9242   -2437.2855 
    9760    59.690798    1292.1324    9.0760506    9.0760506    18.112674          120    19366.528     15732.89   -29115.056   -5509.7463   -9779.1426   -17334.035    9.0760506    7.8600904    18.112674    1994.7876   -2437.2985 
    9770    60.404421    1292.1052    9.0759869    9.0759869    18.112547          120    19758.719    15858.664   -29561.139   -5300.0963   -10063.328   -17365.641    9.0759869    7.8600353    18.112547    2018.7479   -2437.3151 
    9780    61.361555    1292.0801     9.075928    9.0759281     18.11243          120    20130.447    15965.392   -29977.201   -5078.2838   -10383.898   -17343.102     9.075928    7.8599843     18.11243    2039.5457   -2437.3408 
    9790      62.5191    1292.0571    9.0758741    9.0758741    18.112322          120    20441.075    16090.622   -30329.378   -4819.4307   -10722.731   -17255.095    9.0758741    7.8599376    18.112322    2067.4397   -2437.3703 
SHAKE stats (type/ave/delta) on step 9800
  1 0.9572 5.14941e-10
  1 104.52 0
    9800     63.82713    1292.0361    9.0758251    9.0758252    18.112224          120    20717.866    16228.626   -30586.514    -4540.965   -11025.692   -17126.639    9.0758251    7.8598952    18.112224    2119.9926   -2437.3951 
    9810    65.226434    1292.0174    9.0757813    9.0757814    18.112137          120    20928.654    16355.476   -30784.476   -4222.3925   -11334.084   -16963.639    9.0757813    7.8598572    18.112137    2166.5512   -2437.4223 
    9820    66.632706    1292.0009    9.0757427    9.0757428     18.11206          120    21080.728    16458.409   -30989.345    -3902.108    -11597.46   -16752.607    9.0757427    7.8598238     18.11206    2183.2637   -2437.4563 
    9830    67.935761    1291.9867    9.0757094    9.0757094    18.111993          120    21175.053    16559.587   -31123.203   -3579.6199   -11817.623   -16550.436    9.0757094    7.8597949    18.111993    2203.8123   -2437.4827 
    9840    69.009387    1291.9747    9.0756813    9.0756814    18.111937          120    21172.237    16635.122   -31290.021    -3262.241   -11993.299   -16360.366    9.0756813    7.8597706    18.111937    2172.4457    -2437.518 
    9850    69.727947     1291.965    9.0756585    9.0756585    18.111892          120    21163.644    16700.512   -31394.851   -2943.5175   -12143.907   -16159.704    9.0756585    7.8597509    18.111892    2156.4349   -2437.5368 
    9860    69.984308    1291.9574    9.0756408    9.0756409    18.111857          120    21075.615    16768.922   -31502.231    -2639.454   -12243.447   -15973.423    9.0756408    7.8597356    18.111857    2114.1023   -2437.5539 
    9870    69.722289    1291.9521    9.0756282    9.0756283    18.111831          120    20964.932     16835.33   -31617.525   -2354.2961   -12351.977   -15814.384    9.0756282    7.8597247    18.111831    2060.9121   -2437.5631 
    9880    68.941464    1291.9488    9.0756205    9.0756206    18.111816          120    20895.548    16905.681   -31742.879    -2092.212   -12419.317   -15687.825    9.0756205     7.859718    18.111816    2019.4498   -2437.5586 
    9890    67.713512    1291.9476    9.0756177    9.0756178     18.11181          120    20856.976    17033.077    -31852.34    -1883.608   -12479.577   -15567.408    9.0756177    7.8597156     18.11181    2012.5707    -2437.535 
SHAKE stats (type/ave/delta) on step 9900
  1 0.9572 1.19201e-11
  1 104.52 0
    9900    66.163273    1291.9484    9.0756197    9.0756197    18.111814          120    20811.998    17127.458   -32047.923   -1665.7887   -12526.388   -15515.434    9.0756197    7.8597173    18.111814    1963.8445   -2437.5207 
    9910     64.44957    1291.9513    9.0756263    9.0756264    18.111828          120    20759.291    17238.329   -32252.068   -1487.2105   -12592.844   -15492.504    9.0756263     7.859723    18.111828    1915.1841   -2437.5077 
    9920    62.731503     1291.956    9.0756376    9.0756376     18.11185          120    20778.143    17372.133   -32457.012   -1304.1761   -12648.115   -15487.574    9.0756376    7.8597328     18.11185    1897.7546   -2437.4887 
    9930    61.147989    1291.9628    9.0756533    9.0756533    18.111881          120     20783.34    17481.374   -32703.757   -1140.5805    -12714.92    -15522.58    9.0756533    7.8597464    18.111881    1853.6522   -2437.4862 
    9940    59.797223    1291.9714    9.0756734    9.0756735    18.111922          120    20910.983    17652.726   -32847.796   -1011.9428    -12807.14   -15585.111    9.0756734    7.8597638    18.111922    1905.3045   -2437.4646 
    9950    58.735945    1291.9819    9.0756981    9.0756981    18.111971          120    21037.249    17795.424   -33020.743    -890.2296   -12899.548   -15610.043    9.0756981    7.8597852    18.111971    1937.3098   -2437.4612 
    9960    57.985106    1291.9944    9.0757274    9.0757274    18.112029          120    21231.206    17965.937   -33137.189   -748.37332   -12998.094   -15635.027    9.0757274    7.8598105    18.112029    2019.9847   -2437.4548 
    9970    57.542477     1292.009    9.0757614    9.0757615    18.112097          120    21470.899    18140.569   -33228.234   -636.58615   -13171.792   -15659.726    9.0757614      7.85984    18.112097    2127.7447   -2437.4521 
    9980    57.391646    1292.0257    9.0758006    9.0758006    18.112175          120    21684.484    18270.751   -33232.274   -507.83828   -13272.996   -15664.336    9.0758006    7.8598739    18.112175     2240.987   -2437.4564 
    9990    57.505549    1292.0446     9.075845     9.075845    18.112264          120    21891.162    18358.013   -33171.434   -387.25712   -13370.823    -15655.27     9.075845    7.8599124    18.112264    2359.2471   -2437.4651 
SHAKE stats (type/ave/delta) on step 10000
  1 0.957201 4.82617e-10
  1 104.52 0
   10000     57.85308     1292.066     9.075895     9.075895    18.112364          120    22102.575    18444.178   -33027.195   -297.39075   -13465.676   -15599.216     9.075895    7.8599557    18.112364    2506.5197   -2437.4656 
Loop time of 32.3683 on 1 procs for 10000 steps with 119 atoms

Performance: 2.669 ns/day, 8.991 hours/ns, 308.944 timesteps/s
99.5% CPU use with 1 MPI tasks x 1 OpenMP threads

MPI task timing breakdown:
Section |  min time  |  avg time  |  max time  |%varavg| %total
---------------------------------------------------------------
Pair    | 12.69      | 12.69      | 12.69      |   0.0 | 39.21
Bond    | 0.0031118  | 0.0031118  | 0.0031118  |   0.0 |  0.01
Kspace  | 9.9418     | 9.9418     | 9.9418     |   0.0 | 30.71
Neigh   | 0.13927    | 0.13927    | 0.13927    |   0.0 |  0.43
Comm    | 0.17849    | 0.17849    | 0.17849    |   0.0 |  0.55
Output  | 2.3569     | 2.3569     | 2.3569     |   0.0 |  7.28
Modify  | 7.0162     | 7.0162     | 7.0162     |   0.0 | 21.68
Other   |            | 0.04215    |            |       |  0.13

Nlocal:    119 ave 119 max 119 min
Histogram: 1 0 0 0 0 0 0 0 0 0
Nghost:    2382 ave 2382 max 2382 min
Histogram: 1 0 0 0 0 0 0 0 0 0
Neighs:    15357 ave 15357 max 15357 min
Histogram: 1 0 0 0 0 0 0 0 0 0

Total # of neighbors = 15357
Ave neighs/atom = 129.05
Ave special neighs/atom = 0.0504202
Neighbor list builds = 109
Dangerous builds = 0
print		" "
 
print		"All done!"
All done!
Total wall time: 0:00:34
