LAMMPS (16 Mar 2018)
# Fin dminimud floating point parameter in input script or data file (../fix_nh.cpp:132)energy for Beryl

#----- Initialize Simulation -----
clear
units 		metal
boundary 	p p p
atom_style 	full
bond_style	none
variable	etol equal 1e-25
variable 	ftol equal 1e-25
variable 	maxiter equal 5000
variable 	maxeval equal 10000
variable	probeTemp equal 1800

#----- Create Atoms -----
read_data 	beryl_water_050.mod
  triclinic box = (0 0 0) to (9.208 7.97436 18.376) with tilt (-4.604 0 0)
  1 by 1 by 1 MPI processor grid
  reading atoms ...
  122 atoms
  scanning bonds ...
  2 = max bonds/atom
  scanning angles ...
  1 = max angles/atom
  reading bonds ...
  4 bonds
  reading angles ...
  2 angles
  2 = max # of 1-2 neighbors
  1 = max # of 1-3 neighbors
  1 = max # of 1-4 neighbors
  2 = max # of special neighbors
replicate 	8 8 2
  triclinic box = (0 0 0) to (73.664 63.7949 36.752) with tilt (-36.832 0 0)
  1 by 1 by 1 MPI processor grid
  15616 atoms
  512 bonds
  256 angles
  2 = max # of 1-2 neighbors
  1 = max # of 1-3 neighbors
  1 = max # of 1-4 neighbors
  2 = max # of special neighbors
  Time spent = 0.00698805 secs

#----- Define Interatomic Potential -----
include 	potential_main.mod
kspace_style 	pppm 1.0e-4

# Neighbor Style
neighbor	0.3 bin
neigh_modify	delay 0 every 1 check yes

# Minimization style
min_style	cg

# Setup Output
thermo		10
thermo_style	custom	step temp vol cella cellb cellc cellgamma pxx pyy pzz pxy pxz pyz lx ly lz press pe #c_eatoms
thermo_modify	norm no
variable 	myVol equal vol
variable	myCella equal cella
variable	myCellb equal cellb
variable	myCellc equal cellc
variable	myCellgamma equal cellgamma
include 	potential_beryl.mod
# Potential Paramters
pair_style 	hybrid/overlay morse 5.5 buck 5.5 lj/cut/coul/long 5.5 15.0
pair_coeff    1    1 morse     		  0 	       0           0  # Be Be
pair_coeff    1    1 buck                 0            1           -201.0
pair_coeff    1    1 lj/cut/coul/long	  10120.	0.413
pair_coeff    1    2 morse     		  0 	       0           0  # Be Al
pair_coeff    1    2 buck                 0            1           0
pair_coeff    1    2 lj/cut/coul/long	  0	       0
pair_coeff    1    3 morse     		  0 	       0           0  # Al Si
pair_coeff    1    3 buck                 0            1           0
pair_coeff    1    3 lj/cut/coul/long	  0	       0
pair_coeff    1    4 morse 		  0.239919     2.527420    1.815405	#Be O
pair_coeff    1    4 buck                 0.000000     1.000000   -46.00000
pair_coeff    1    4 lj/cut/coul/long     529.000      0.528
pair_coeff    2    2 morse     		  0 	       0           0  # Al Al
pair_coeff    2    2 buck                 0            1           -492.
pair_coeff    2    2 lj/cut/coul/long	  60423		0.356
pair_coeff    2    3 morse     		  0 	       0           0  # Al si
pair_coeff    2    3 buck                 0            1           0
pair_coeff    2    3 lj/cut/coul/long	  0	       0
pair_coeff    2    4 morse 		  0.361581     1.900442    2.164818	#Al O
pair_coeff    2    4 buck                 0.000000     1.000000   -71.5
pair_coeff    2    4 lj/cut/coul/long     1420.0	0.482
pair_coeff    3    3 morse     		  0 	       0           0  # Si Si
pair_coeff    3    3 buck                 0            1           -282.
pair_coeff    3    3 lj/cut/coul/long	  19730		0.391
pair_coeff    3    4 morse 		  0.340554     2.006700    2.100000	#Si O
pair_coeff    3    4 buck                 0.000000     1.000000   -60.5
pair_coeff    3    4 lj/cut/coul/long     916.		0.504
pair_coeff    4    4 morse     		  0.042395     1.379316    3.618701  # O O
pair_coeff    4    4 buck                 0.000000     1.000000   -16.7
pair_coeff    4    4 lj/cut/coul/long	  3.16		1.05
include 	potential_water.mod
# Potential Paramters

pair_coeff    1    6 morse     		  0. 	       0.           0.  		# Ow Be
pair_coeff    1    6 buck                 0            1           -354.5
pair_coeff    1    6 lj/cut/coul/long	  39.637	1.1435
pair_coeff    2    6 morse     		  0 	       0           0  		# Ow Al
pair_coeff    2    6 buck                 0            1           -554.6
pair_coeff    2    6 lj/cut/coul/long	  96.854	1.0616
pair_coeff    3    6 morse     		  0 	       0           0  		# Ow Si
pair_coeff    3    6 buck                 0            1           -419.9
pair_coeff    3    6 lj/cut/coul/long	  55.345	1.1126
pair_coeff    4    6 morse     		  0 	       0           0  		# Ow O
pair_coeff    4    6 buck                 0            1           -102.9
pair_coeff    4    6 lj/cut/coul/long	  0.70042	1.8233
pair_coeff    5    6 morse     		  0 	       0           0  # Hw Hw
pair_coeff    5    6 buck                 0            1           0
pair_coeff    5    6 lj/cut/coul/long	  0.000	      0.0
pair_coeff    6    6 morse     		  0 	       0           0  		# Ow Ow
pair_coeff    6    6 buck                 0            1           -625.4
pair_coeff    6    6 lj/cut/coul/long	  0.15525	3.166
pair_coeff    1    5 morse     		  0 	       0           0  # Hw Hw
pair_coeff    1    5 buck                 0            1           0
pair_coeff    1    5 lj/cut/coul/long	  0.000	      0.0
pair_coeff    2    5 morse     		  0 	       0           0  # Hw Hw
pair_coeff    2    5 buck                 0            1           0
pair_coeff    2    5 lj/cut/coul/long	  0.000	      0.0
pair_coeff    3    5 morse     		  0 	       0           0  # Hw Hw
pair_coeff    3    5 buck                 0            1           0
pair_coeff    3    5 lj/cut/coul/long	  0.000	      0.0
pair_coeff    4    5 morse     		  0 	       0           0  # Hw Hw
pair_coeff    4    5 buck                 0            1           0
pair_coeff    4    5 lj/cut/coul/long	  0.000	      0.0
pair_coeff    5    5 morse     		  0 	       0           0  # Hw Hw
pair_coeff    5    5 buck                 0            1           0
pair_coeff    5    5 lj/cut/coul/long	  0.000	      0.0



bond_style	harmonic
angle_style	harmonic
dihedral_style	none
improper_style	none

bond_coeff	1 1000.00 1.000
angle_coeff	1 100.0 109.47


#------ Define Settings -----

# ----- Run Minimization -----
fix 		BRX all box/relax iso 1.013
minimize	1e-25 1e-25 5000 10000 # Performs actual minimization
PPPM initialization ...
WARNING: System is not charge neutral, net charge = -0.3072 (../kspace.cpp:302)
  using 12-bit tables for long-range coulomb (../kspace.cpp:321)
  G vector (1/distance) = 0.201673
  grid = 36 50 24
  stencil order = 5
  estimated absolute RMS force accuracy = 0.00103635
  estimated relative force accuracy = 7.19705e-05
  using double precision FFTs
  3d grid and FFT values/proc = 65395 43200
Neighbor list info ...
  update every 1 steps, delay 0 steps, check yes
  max neighbors/atom: 2000, page size: 100000
  master list distance cutoff = 15.3
  ghost atom cutoff = 15.3
  binsize = 7.65, bins = 15 9 5
  3 neighbor lists, perpetual/occasional/extra = 3 0 0
  (1) pair morse, perpetual
      attributes: half, newton on
      pair build: half/bin/newton/tri
      stencil: half/bin/3d/newton/tri
      bin: standard
  (2) pair buck, perpetual, copy from (1)
      attributes: half, newton on
      pair build: copy
      stencil: none
      bin: none
  (3) pair lj/cut/coul/long, perpetual, copy from (1)
      attributes: half, newton on
      pair build: copy
      stencil: none
      bin: none
Per MPI rank memory allocation (min/avg/max) = 164.1 | 164.1 | 164.1 Mbytes
Step Temp Volume Cella Cellb Cellc CellGamma Pxx Pyy Pzz Pxy Pxz Pyz Lx Ly Lz Press PotEng 
       0            0    172711.88       73.664    73.664001       36.752          120   -204245.91   -203525.55    -275634.7    26.375631    294.39141    117.85324       73.664    63.794896       36.752   -227802.05    -308824.7 
      10            0    172194.26    73.590336    73.590337    36.715248          120   -196205.61   -197463.87   -267858.84     1175.519    2868.6789   -906.67467    73.590336    63.731101    36.715248   -220509.44   -308932.84 
      20            0    171677.68    73.516672    73.516673    36.678496          120   -187037.31   -190278.05   -259697.15    2328.8045    5452.8807   -1934.9536    73.516672    63.667306    36.678496   -212337.51   -309001.57 
      30            0    171162.13    73.443008    73.443009    36.641744          120   -177836.69   -183068.27   -251705.54    3487.2619    8048.1099   -2966.6249    73.443008    63.603511    36.641744    -204203.5    -309071.5 
      40            0    170647.62    73.369344    73.369345    36.604992          120   -168520.24   -175752.79   -243545.86    4649.9507    10653.495    -4005.542    73.369344    63.539716    36.604992   -195939.63   -309136.18 
      50            0    170134.13     73.29568    73.295681     36.56824          120   -159076.99   -168317.15   -235165.15    5817.8165    13270.533    -5048.449     73.29568    63.475922     36.56824   -187519.76   -309196.76 
      60            0    169621.68    73.222016    73.222017    36.531488          120   -149699.27   -160950.67   -227159.67     6991.595     15894.41   -6093.3328    73.222016    63.412127    36.531488   -179269.87   -309260.76 
      70            0    169110.26    73.148352    73.148353    36.494736          120   -140135.98   -153410.61   -218748.28    8167.4615    18530.332   -7142.9908    73.148352    63.348332    36.494736   -170764.95   -309317.49 
      80            0    168599.87    73.074688    73.074689    36.457984          120   -130498.69   -145805.16   -210209.07    9348.6833    21177.198   -8195.9163    73.074688    63.284537    36.457984   -162170.97   -309371.22 
      90            0     168090.5    73.001024    73.001025    36.421232          120   -120709.64   -138055.35   -201466.14    10534.804    23833.956   -9253.8879    73.001024    63.220742    36.421232   -153410.38   -309421.05 
     100            0    167582.16     72.92736    72.927361     36.38448          120   -111030.27   -130421.61   -192674.01    11726.944    26501.425   -10314.563     72.92736    63.156947     36.38448   -144708.63   -309472.31 
     110            0    167074.85    72.853696    72.853697    36.347728          120   -101038.09      -122486   -183920.38    12921.564    29179.689   -11381.128    72.853696    63.093152    36.347728   -135814.82   -309517.13 
     120            0    166568.56    72.780032    72.780033    36.310976          120   -90986.349   -114497.95   -175052.25     14119.63    31867.494   -12450.684    72.780032    63.029357    36.310976   -126845.52   -309559.38 
     130            0     166063.3    72.706368    72.706369    36.274224          120   -80777.772   -106362.12   -166074.64    15324.236    34565.796    -13524.49    72.706368    62.965562    36.274224   -117738.18   -309598.11 
     140            0    165559.06    72.632704    72.632705    36.237472          120   -70492.904   -98158.001   -156892.05    16533.183    37274.649    -14603.51    72.632704    62.901767    36.237472   -108514.32   -309633.46 
     150            0    165055.84     72.55904    72.559041     36.20072          120   -60104.008   -89855.553    -147700.4    17747.062    39994.734   -15685.597     72.55904    62.837973     36.20072   -99219.987   -309666.47 
     160            0    164553.64    72.485376    72.485377    36.163968          120   -49631.208   -81480.074   -138502.75    18964.807    42723.756   -16770.044    72.485376    62.774178    36.163968   -89871.344   -309696.99 
     170            0    164052.47    72.411712    72.411713    36.127216          120   -38981.572   -72935.325   -129178.07    20186.482    45464.093   -17860.037    72.411712    62.710383    36.127216   -80364.988   -309723.63 
     180            0    163552.31    72.338048    72.338049    36.090464          120   -28290.861   -64352.368   -119662.63    21413.605     48214.33   -18954.373    72.338048    62.646588    36.090464    -70768.62   -309747.57 
     190            0    163053.16    72.264384    72.264385    36.053712          120   -17493.762   -55674.114   -110114.05    22645.101    50974.982    -20052.65    72.264384    62.582793    36.053712   -61093.976   -309768.61 
     200            0    162555.04     72.19072    72.190721     36.01696          120   -6618.2217   -46924.013   -100664.27    23880.701    53743.973   -21154.821     72.19072    62.518998     36.01696    -51402.17   -309787.97 
     210            0    162057.93    72.117056    72.117057    35.980208          120    4441.7085   -37996.279    -90943.55    25120.837    56522.658   -22259.689    72.117056    62.455203    35.980208   -41499.374   -309802.69 
     220            0    161561.83    72.043392    72.043393    35.943456          120    15570.033   -29009.274   -81054.025    26363.262    59309.067    -23366.18    72.043392    62.391408    35.943456   -31497.756   -309814.26 
     230            0    161345.99    72.011295    72.011296    35.927443          120     20499.58   -25012.003   -76667.586    26905.355    60525.369   -23848.454    72.011295    62.363612    35.927443   -27060.003   -309817.65 
     236            0    161345.97    72.011292    72.011292    35.927441          120    20500.139   -25011.571    -76667.11     26905.42    60525.505   -23848.514    72.011292    62.363609    35.927441   -27059.514   -309817.65 
Loop time of 203.504 on 1 procs for 236 steps with 15616 atoms

100.0% CPU use with 1 MPI tasks x no OpenMP threads

Minimization stats:
  Stopping criterion = linesearch alpha is zero
  Energy initial, next-to-last, final = 
        -308824.696785     -309817.658176     -309817.658176
  Force two-norm initial, final = 73670.5 8467.1
  Force max component initial, final = 73670.3 8362.96
  Final line search alpha, max atom move = 8.90902e-17 7.45058e-13
  Iterations, force evaluations = 236 421

MPI task timing breakdown:
Section |  min time  |  avg time  |  max time  |%varavg| %total
---------------------------------------------------------------
Pair    | 183.43     | 183.43     | 183.43     |   0.0 | 90.13
Bond    | 0.016313   | 0.016313   | 0.016313   |   0.0 |  0.01
Kspace  | 5.8511     | 5.8511     | 5.8511     |   0.0 |  2.88
Neigh   | 7.48       | 7.48       | 7.48       |   0.0 |  3.68
Comm    | 0.13724    | 0.13724    | 0.13724    |   0.0 |  0.07
Output  | 0.0030091  | 0.0030091  | 0.0030091  |   0.0 |  0.00
Modify  | 0          | 0          | 0          |   0.0 |  0.00
Other   |            | 6.589      |            |       |  3.24

Nlocal:    15616 ave 15616 max 15616 min
Histogram: 1 0 0 0 0 0 0 0 0 0
Nghost:    48992 ave 48992 max 48992 min
Histogram: 1 0 0 0 0 0 0 0 0 0
Neighs:    1.13226e+07 ave 1.13226e+07 max 1.13226e+07 min
Histogram: 1 0 0 0 0 0 0 0 0 0

Total # of neighbors = 11322624
Ave neighs/atom = 725.066
Ave special neighs/atom = 0.0983607
Neighbor list builds = 20
Dangerous builds = 0

reset_timestep	0
timestep	0.0001
velocity       	all create ${probeTemp} 87287 loop geom
velocity       	all create 1800 87287 loop geom
fix		1 all npt temp ${probeTemp} ${probeTemp} 0.1 iso 1.013 1.013 5.0
fix		1 all npt temp 1800 ${probeTemp} 0.1 iso 1.013 1.013 5.0
fix		1 all npt temp 1800 1800 0.1 iso 1.013 1.013 5.0
run		10000 # Warmup
PPPM initialization ...
  using 12-bit tables for long-range coulomb (../kspace.cpp:321)
  G vector (1/distance) = 0.202783
  grid = 36 50 24
  stencil order = 5
  estimated absolute RMS force accuracy = 0.00096726
  estimated relative force accuracy = 6.71725e-05
  using double precision FFTs
  3d grid and FFT values/proc = 65395 43200
Per MPI rank memory allocation (min/avg/max) = 168.8 | 168.8 | 168.8 Mbytes
Step Temp Volume Cella Cellb Cellc CellGamma Pxx Pyy Pzz Pxy Pxz Pyz Lx Ly Lz Press PotEng 
       0         1800    161345.97    72.011292    72.011292    35.927441          120    44433.483    -993.5861   -52361.247    26784.781    60665.035    -24027.73    72.011292    62.363609    35.927441   -2973.7832   -309817.09 
      10    1870.5387    161345.94    72.011288    72.011288    35.927439          120    -66187.32   -56995.718   -150384.84    -4761.754   -11283.404    4669.5961    72.011288    62.363605    35.927439   -91189.292   -309974.43 
      20    1723.9166    161345.85    72.011274    72.011275    35.927432          120   -137972.88   -94183.468   -211942.72   -25513.016    -57612.15    23101.272    72.011274    62.363593    35.927432   -148033.02   -309676.07 
      30    1688.1784    161345.69     72.01125    72.011251     35.92742          120    7213.2405   -16461.588    -81611.25    14016.032    35555.021   -12452.205     72.01125    62.363573     35.92742   -30286.532   -309612.69 
      40    1553.5556    161345.47    72.011218    72.011219    35.927404          120    20106.291   -7637.8618   -67686.608    17535.396    40940.396   -15333.018    72.011218    62.363545    35.927404    -18406.06   -309340.66 
      50     1397.099    161345.21    72.011178    72.011179    35.927384          120   -123487.08   -88315.437   -191602.75   -20319.349   -51209.114    17864.521    72.011178     62.36351    35.927384   -134468.42   -309021.46 
      60    1355.2142    161344.88    72.011129     72.01113     35.92736          120   -71674.367   -59285.673   -140075.31   -8663.5693   -17637.762    7977.2333    72.011129    62.363468     35.92736   -90345.117   -308943.97 
      70    1153.8048    161344.49    72.011072    72.011073    35.927331          120    47652.848    15171.524   -25640.028    19807.011    53059.169   -15945.613    72.011072    62.363418    35.927331    12394.781   -308525.83 
      80    1197.8128    161344.07    72.011008    72.011009    35.927299          120   -43392.017   -41096.012   -104211.78   -291.80937   -3913.4508    280.01731    72.011008    62.363363    35.927299   -62899.935   -308625.41 
      90     1057.121    161343.59    72.010938    72.010938    35.927264          120   -124722.11   -98091.541   -175346.31   -17904.911   -48560.906    14796.888    72.010938    62.363302    35.927264   -132719.99   -308329.35 
     100    1126.8902    161343.06    72.010859     72.01086    35.927225          120    96.768716    -11298.01   -47664.144    6330.1185    22204.151   -3820.6753    72.010859    62.363234    35.927225   -19621.795   -308477.03 
     110    1116.4536    161342.49    72.010774    72.010775    35.927182          120    24544.478    7468.8085    -16242.38    10784.851    33261.487   -7411.5508    72.010774     62.36316    35.927182    5256.9689   -308450.99 
     120    1144.7858    161341.88    72.010684    72.010684    35.927137          120   -104855.77    -91399.04   -141425.29   -9483.6235    -32669.96    6711.2596    72.010684    62.363082    35.927137   -112560.03   -308505.92 
     130    1241.9723    161341.23    72.010586    72.010587    35.927089          120     -78520.4   -71707.394   -107657.99   -5212.0954   -16499.249    4087.7524    72.010586    62.362997    35.927089   -85961.929   -308706.07 
     140     1207.255    161340.52    72.010482    72.010482    35.927037          120    31190.179    18149.605    16910.771    7648.9169     32998.74   -4168.4915    72.010482    62.362907    35.927037    22083.518   -308625.14 
     150     1353.932    161339.79    72.010372    72.010373    35.926982          120   -35172.413   -37693.542    -49707.63    486.10412    2675.5526   -712.46087    72.010372    62.362812    35.926982   -40857.862   -308931.29 
     160     1254.972    161339.02    72.010257    72.010258    35.926925          120   -119561.05   -111804.35    -138538.1   -5623.5743   -28294.061     2511.735    72.010257    62.362713    35.926925   -123301.17   -308716.98 
     170    1381.3937     161338.2    72.010136    72.010136    35.926864          120   -16733.527   -19016.635   -13394.456    1198.0083    9884.8466   -500.93132    72.010136    62.362608    35.926864   -16381.539   -308981.83 
     180    1299.5797    161337.35     72.01001     72.01001    35.926801          120    22405.728    16939.883    37503.504    2310.7408    20151.779   -1346.6598     72.01001    62.362498    35.926801    25616.372    -308806.3 
     190    1324.5677    161336.48    72.009879     72.00988    35.926736          120   -87640.464   -85862.991   -89109.762   -1507.6938   -12820.511   -1164.6952    72.009879    62.362386    35.926736   -87537.739   -308858.36 
     200    1332.4459    161335.57    72.009744    72.009745    35.926669          120   -78832.758   -77323.858   -70795.086   -445.51175   -8531.4472   -919.98666    72.009744    62.362269    35.926669   -75650.567   -308873.62 
     210    1264.1728    161334.63    72.009605    72.009606    35.926599          120    30835.729    28901.122     68293.82     552.8638    14939.057    4.6822602    72.009605    62.362148    35.926599     42676.89   -308727.39 
     220     1358.236    161333.68    72.009463    72.009464    35.926528          120   -14347.122    -14148.39    14119.878   -267.87941    3870.1067   -1428.2632    72.009463    62.362025    35.926528   -4791.8777   -308925.34 
     230    1251.0041    161332.71    72.009319     72.00932    35.926457          120    -100432.5   -99987.231   -88226.532    563.38067   -9260.9204   -2629.9764    72.009319      62.3619    35.926457    -96215.42    -308694.9 
     240    1375.4842    161331.72    72.009172    72.009172    35.926383          120   -8634.7795   -9753.3399    33418.563    389.04521    3344.5728    -193.3517    72.009172    62.361773    35.926383    5010.1478   -308956.23 
     250    1293.7307    161330.72    72.009023    72.009024    35.926309          120    43005.038    43514.678    99798.497   -726.81138    6846.0687    132.02763    72.009023    62.361644    35.926309    62106.071   -308778.63 
     260     1371.237    161329.73    72.008875    72.008876    35.926235          120   -56655.761   -56072.237   -25878.402     107.1149   -1711.6972   -2443.7124    72.008875    62.361516    35.926235   -46202.133   -308940.06 
     270    1345.7625    161328.72    72.008726    72.008726     35.92616          120   -60423.587   -62340.331   -24777.828    1080.1541    -1143.217   -1463.0527    72.008726    62.361386     35.92616   -49180.582   -308883.75 
     280    1325.1034    161327.72    72.008576    72.008577    35.926086          120    51085.368     49569.94    120131.78   -367.91056    2020.3707    835.43688    72.008576    62.361257    35.926086    73595.696   -308837.55 
     290    1369.9889    161326.72    72.008428    72.008429    35.926012          120    20048.029    19875.174    80559.366   -864.97213    685.30273   -767.39477    72.008428    62.361129    35.926012    40160.856    -308932.4 
     300    1243.8924    161325.74    72.008283    72.008283    35.925939          120   -71446.045    -71928.58   -33346.856    593.18126    1139.9124    -2299.661    72.008283    62.361003    35.925939    -58907.16   -308665.82 
     310     1322.881    161324.77    72.008138    72.008139    35.925867          120    10006.033    7241.3066    73637.221    389.04538   -140.21144    146.42551    72.008138    62.360877    35.925867    30294.854   -308834.41 
     320    1185.4391    161323.82    72.007996    72.007997    35.925797          120    74122.006    70083.332    156886.44   -811.66853   -2529.0661    542.40161    72.007996    62.360755    35.925797    100363.92   -308544.04 
     330    1225.8856     161322.9    72.007859    72.007859    35.925728          120   -22562.099   -22807.243    35154.535   -342.40903    1338.7558   -2107.1293    72.007859    62.360636    35.925728   -3404.9353   -308631.96 
     340     1161.377    161321.99    72.007725    72.007725    35.925661          120   -43548.533   -42973.144    9590.2139    324.45528    2438.0763   -1409.0913    72.007725     62.36052    35.925661   -25643.821   -308494.99 
     350    1145.9317    161321.11    72.007594    72.007594    35.925596          120    70572.369    64107.284    154833.92   -270.22574    -4114.994    475.78786    72.007594    62.360406    35.925596    96504.525   -308461.66 
     360    1182.0973    161320.27    72.007468    72.007469    35.925533          120    49651.803     44580.55    129456.92   -449.54611   -2906.4234    -1232.344    72.007468    62.360297    35.925533     74563.09   -308536.76 
     370    1113.9738    161319.46    72.007348    72.007348    35.925473          120   -55197.724    -51137.32   -1685.4736   -406.09493    3692.3611   -2626.4335    72.007348    62.360193    35.925473   -36006.839   -308388.73 
     380    1227.2641    161318.68    72.007231    72.007231    35.925415          120     15200.45    12937.761    84806.385   -347.14606   -1009.5638   -734.33227    72.007231    62.360092    35.925415    37648.199   -308625.53 
     390    1144.4937    161317.92    72.007119    72.007119    35.925359          120    91221.594    80305.549    177963.96    133.51158   -5822.9062   -784.98271    72.007119    62.359995    35.925359    116497.04   -308444.67 
     400    1261.5089    161317.21    72.007013    72.007014    35.925306          120    -5013.076   -4909.3322    59532.466   -603.23788    825.97602   -2651.5771    72.007013    62.359903    35.925306    16536.686   -308687.83 
     410    1216.7059    161316.53    72.006912    72.006912    35.925255          120   -43613.126   -37828.112    11359.139   -1466.5609    3380.4775   -2197.4017    72.006912    62.359815    35.925255     -23360.7   -308587.99 
     420    1258.7104    161315.88    72.006815    72.006815    35.925207          120     73984.97    64144.046    150962.48    145.62479   -3872.8091   -1604.4365    72.006815    62.359731    35.925207    96363.833   -308671.97 
     430    1303.7472    161315.26    72.006723    72.006724    35.925162          120    67148.815    57329.562    139625.34    465.69751   -2754.4563   -2474.5225    72.006723    62.359652    35.925162    88034.572   -308762.74 
     440    1239.3928    161314.69    72.006638    72.006639    35.925119          120   -47413.912   -39801.773    2832.7907   -2156.6694    5148.6858   -3034.5321    72.006638    62.359579    35.925119   -28127.631   -308622.48 
     450     1353.754    161314.15    72.006557    72.006558    35.925079          120      11032.7    11154.115     70508.42   -1508.4576    1647.3764   -3020.1801    72.006557    62.359508    35.925079    30898.412   -308860.85 
     460    1253.6142    161313.64    72.006481    72.006482    35.925041          120    101966.34    86350.459    171108.91    1427.3834   -3986.8676   -2882.9562    72.006481    62.359443    35.925041    119808.57   -308643.19 
     470    1370.6317    161313.17    72.006412    72.006412    35.925006          120     12027.75    10868.448    63938.135   -818.14048    3147.2138   -3169.1891    72.006412    62.359382    35.925006    28944.778   -308887.82 
     480     1298.513    161312.73    72.006347    72.006348    35.924974          120   -46256.861   -35392.116   -3300.8925   -3514.0264    7625.0482   -3839.9205    72.006347    62.359326    35.924974   -28316.623   -308729.44 
     490     1373.434    161312.33    72.006287    72.006287    35.924944          120    73789.485    63121.963    128526.76    496.20451   -1484.7521   -3440.9604    72.006287    62.359274    35.924944    88479.403   -308883.19 
     500    1379.1036    161311.96    72.006232    72.006233    35.924916          120    81391.747    68465.095    131653.23     1488.817   -1202.1415   -3132.9302    72.006232    62.359227    35.924916    93836.691   -308890.45 
     510     1362.595    161311.63    72.006183    72.006184    35.924892          120   -42091.439   -30935.942   -9927.2653    -3210.508    9876.4818   -3550.0563    72.006183    62.359184    35.924892   -27651.549   -308849.62 
     520    1462.9287    161311.33    72.006138    72.006139    35.924869          120    3507.0431    6453.0353    36912.193   -1773.9524    5247.8079   -3681.4948    72.006138    62.359145    35.924869    15624.091   -309057.75 
     530    1366.5906    161311.06    72.006097    72.006098    35.924849          120    105553.23    88587.423    144299.18     2415.612   -3964.3062   -3424.6782    72.006097     62.35911    35.924849    112813.28   -308848.29 
     540    1509.4296    161310.82    72.006062    72.006063    35.924832          120     22821.95    22364.703    46714.454    -813.8131    5389.1515   -3141.6132    72.006062     62.35908    35.924832    30633.702   -309146.59 
     550    1401.3226    161310.61    72.006031    72.006032    35.924816          120   -49559.245   -35091.063   -38603.165   -3408.2241    12407.632   -3485.2835    72.006031    62.359053    35.924816   -41084.491   -308913.07 
     560    1499.7892    161310.42    72.006003    72.006004    35.924802          120    68179.383    59711.421    85115.925    1032.6047   -576.38924   -3926.8098    72.006003    62.359029    35.924802    71002.243   -309118.38 
     570    1465.2836    161310.27     72.00598     72.00598     35.92479          120    89879.156    77393.397    101534.92    1538.0317    -1994.046   -3599.4525     72.00598    62.359008     35.92479    89602.491    -309040.8 
     580    1465.0225    161310.14    72.005961    72.005961    35.924781          120    -32692.75   -20747.809   -41847.664   -2989.0481    12279.093   -2899.5507    72.005961    62.358992    35.924781   -31762.741    -309037.3 
     590    1516.0536    161310.03    72.005945    72.005945    35.924773          120   -3936.7765    3787.4847   -15519.444   -1926.7653    8549.6138   -3891.2349    72.005945    62.358978    35.924773   -5222.9119   -309142.49 
     600    1446.3234    161309.94    72.005931    72.005932    35.924766          120    106294.91    93155.264     98799.73    2053.9041   -4241.9207   -4587.8866    72.005931    62.358966    35.924766    99416.635   -308990.48 
     610      1552.58    161309.88    72.005922    72.005922    35.924762          120    38438.562    36977.992    12406.626   -597.96526     4345.743   -2872.1788    72.005922    62.358958    35.924762    29274.393   -309213.79 
     620    1446.1792    161309.84    72.005916    72.005916    35.924759          120   -47417.393   -31254.177   -88761.068    -4320.897    15149.782   -2723.2296    72.005916    62.358953    35.924759   -55810.879   -308984.34 
     630    1561.2804     161309.8    72.005911    72.005912    35.924756          120    60747.448    59350.459    26969.848   -36.500038    1986.5831   -5003.6827    72.005911    62.358949    35.924756    49022.585   -309225.14 
     640    1488.2424    161309.79    72.005909     72.00591    35.924755          120    99673.928    89771.842    59039.909    2006.6848   -3399.8776   -4293.8951    72.005909    62.358947    35.924755    82828.559   -309067.51 
     650    1525.8707     161309.8     72.00591    72.005911    35.924756          120   -19649.509   -10165.767   -84078.659   -3521.1993    12142.131   -1843.8352     72.00591    62.358948    35.924756   -37964.645   -309144.49 
     660    1540.9737    161309.82    72.005913    72.005913    35.924757          120   -10089.786    646.82876   -74484.083     -3751.67    12136.661   -3651.1009    72.005913     62.35895    35.924757    -27975.68   -309173.73 
     670    1476.6121    161309.84    72.005916    72.005917    35.924759          120    105282.99    98821.364    48594.101    1900.3602    -3617.352   -5623.6099    72.005916    62.358953    35.924759     84232.82   -309035.05 
     680    1560.4364    161309.88    72.005922    72.005923    35.924762          120    51397.278    51132.048   -23778.113   -293.06591    2899.4056   -3253.3225    72.005922    62.358959    35.924762    26250.405   -309211.16 
     690    1440.5492    161309.93     72.00593    72.005931    35.924766          120   -42783.325    -30942.32    -133368.1   -5231.2896    16410.755   -1833.9083     72.00593    62.358965    35.924766   -69031.248   -308955.56 
     700    1523.4448    161309.99    72.005938    72.005938     35.92477          120    54604.055    55336.135   -23606.269   -1052.2194     3831.162     -5283.34    72.005938    62.358972     35.92477    28777.974   -309130.86 
     710    1432.3993    161310.05    72.005947    72.005948    35.924774          120    104668.57    100694.14    24846.449    1774.4588   -3372.7048    -5774.209    72.005947     62.35898    35.924774    76736.386   -308935.95 
     720    1455.2246    161310.12    72.005958    72.005959     35.92478          120   -8382.7038   -1881.1275   -110377.64   -3001.7909    11237.136   -2007.9656    72.005958     62.35899     35.92478   -40213.823   -308984.02 
     730    1431.5547     161310.2    72.005969     72.00597    35.924785          120   -12360.366   -8170.4705   -114374.88    -3715.315    11926.383   -3087.8685    72.005969    62.358999    35.924785   -44968.573      -308933 
     740    1383.9281    161310.27     72.00598    72.005981    35.924791          120    101796.55    97870.036    13766.999    1033.2765   -2277.9419   -6445.1526     72.00598    62.359009    35.924791    71144.529   -308830.05 
     750    1442.4155    161310.36    72.005993    72.005994    35.924797          120    60732.956     61329.21   -39429.375   -47.757531    2301.9398   -4230.5287    72.005993     62.35902    35.924797    27544.264   -308953.53 
     760    1324.7266    161310.44    72.006006    72.006007    35.924804          120   -38585.527   -34361.602      -156859   -3761.8038    13355.077   -1385.3909    72.006006    62.359031    35.924804   -76602.043   -308702.38 
     770    1431.5956    161310.53    72.006019    72.006019     35.92481          120    46085.039    43748.306   -56678.953   -1113.2493    4102.7291   -4032.7205    72.006019    62.359042     35.92481    11051.464   -308926.98 
     780    1320.6331    161310.61    72.006031    72.006032    35.924816          120    105911.76    101824.31    10902.477    1225.8601   -2751.9672   -5692.7005    72.006031    62.359053    35.924816    72879.516   -308689.52 
     790    1381.0866    161310.71    72.006045    72.006046    35.924823          120    118.59319     2072.336   -118468.25   -1730.1681    7791.1453   -2519.0056    72.006045    62.359065    35.924823   -38759.105   -308815.97 
     800    1350.4009    161310.79    72.006058    72.006059     35.92483          120   -19546.525   -19268.652   -139868.92   -2665.2231    10038.831   -1192.0652    72.006058    62.359076     35.92483   -59561.366   -308748.44 
     810    1321.2406    161310.88     72.00607    72.006071    35.924836          120    93684.663    88250.664   -1775.4683    492.80028   -1015.4705   -4458.4449     72.00607    62.359087    35.924836    60053.286    -308684.4 
     820     1381.818    161310.96    72.006083    72.006084    35.924842          120    66507.316    64364.614   -38067.778    482.25963    1216.0946   -4478.8272    72.006083    62.359098    35.924842    30934.717   -308810.62 
     830    1276.1567    161311.05    72.006096    72.006097    35.924849          120   -37637.197   -36873.319   -166534.13    -2331.975     10812.63   -866.77472    72.006096    62.359109    35.924849   -80348.216   -308583.72 
     840    1385.1013    161311.13    72.006108    72.006108    35.924854          120    34602.867    30476.672   -72392.266   -1434.6016     4710.297   -1650.7382    72.006108    62.359119    35.924854   -2437.5754   -308813.37 
     850    1266.4863     161311.2    72.006119    72.006119     35.92486          120    102681.39    98925.148    13339.694    900.97615   -1319.8368   -4451.3841    72.006119    62.359129     35.92486    71648.744   -308558.39 
     860     1360.466    161311.28    72.006131    72.006131    35.924866          120    7955.1467    6496.2089   -109453.45   -670.42388    6919.0699   -2071.7988    72.006131    62.359139    35.924866   -31667.364   -308755.68 
     870    1286.3676    161311.36    72.006142    72.006142    35.924871          120    -23765.43   -28852.229   -148198.29   -2648.7125    9403.2697    125.57321    72.006142    62.359149    35.924871   -66938.649   -308596.11 
     880    1312.4779    161311.42    72.006152    72.006152    35.924876          120    84159.192    81340.159   -3568.1665   -401.64637    747.52317   -2619.1295    72.006152    62.359157    35.924876    53977.061   -308648.24 
     890    1341.9314    161311.49    72.006162    72.006163    35.924882          120    71405.156    70863.179   -20562.234    205.23469    2601.1374   -2494.5102    72.006162    62.359166    35.924882      40568.7   -308708.04 
     900    1266.3807    161311.57    72.006173    72.006174    35.924887          120   -29730.247    -36327.73   -157539.99   -2252.7263    9969.6709   -31.084292    72.006173    62.359176    35.924887   -74532.655   -308545.12 
     910    1386.3304    161311.63    72.006183    72.006184    35.924892          120    26827.431    21905.044   -77287.357   -1445.1575    4949.4257   -1015.4471    72.006183    62.359184    35.924892   -9518.2938   -308795.69 
     920    1275.8816     161311.7    72.006193    72.006193    35.924897          120    101138.26    103501.77    27667.655    163.96968    925.71319   -2208.8885    72.006193    62.359193    35.924897    77435.893    -308557.3 
     930    1400.0124    161311.77    72.006204    72.006204    35.924902          120    20610.078    17531.668   -86525.061   -1487.4477    7007.1911   -537.17342    72.006204    62.359202    35.924902   -16127.772   -308817.38 
     940    1323.8736    161311.85    72.006215    72.006215    35.924908          120   -22698.367   -31433.197   -146204.95    -1876.578    8028.1418    236.28723    72.006215    62.359212    35.924908   -66778.837   -308651.08 
     950    1393.6751    161311.92    72.006225    72.006226    35.924913          120    79523.672    81072.639    4000.6203    487.46815    2067.6169   -1719.0309    72.006225    62.359221    35.924913    54865.644   -308795.29 
     960    1395.5637       161312    72.006237    72.006238    35.924919          120    81116.998    84194.178    5172.1246    75.032995    3544.5101   -1583.7798    72.006237    62.359231    35.924919    56827.767   -308795.16 
     970    1375.0437    161312.09     72.00625    72.006251    35.924926          120   -17730.846   -26117.815   -139862.56    -2261.446    8197.5744      1079.01     72.00625    62.359243    35.924926   -61237.073   -308747.31 
     980    1459.6956    161312.18    72.006264    72.006264    35.924932          120    24846.241    20679.448    -71528.18   -131.94204    4917.1094   -168.56871    72.006264    62.359254    35.924932   -8667.4969   -308923.09 
     990    1371.0932    161312.27    72.006278    72.006279     35.92494          120    106498.23    111994.51    49839.952    2501.2355    2200.9731   -2674.2985    72.006278    62.359267     35.92494    89444.229   -308730.59 
    1000    1494.0155    161312.39    72.006296    72.006296    35.924948          120     37983.35    35008.095   -55145.538   -691.34666    6242.4036   -198.90825    72.006296    62.359282    35.924948    5948.6355   -308987.66 
    1010    1396.2524    161312.52    72.006314    72.006315    35.924957          120   -15667.652   -24361.782   -129680.51    -2614.913    7306.2618    1438.7809    72.006314    62.359298    35.924957    -56569.98    -308776.8 
    1020    1481.3705    161312.65    72.006334    72.006335    35.924967          120    81585.875    83959.322    19611.312    2621.8936    3740.5969   -2286.0714    72.006334    62.359315    35.924967    61718.836   -308953.21 
    1030    1460.2072     161312.8    72.006357    72.006358    35.924979          120    97630.028    99626.409    39746.575    3079.7454    4577.9801    -2369.095    72.006357    62.359335    35.924979    79001.004   -308904.12 
    1040    1446.4721    161312.98    72.006384    72.006384    35.924992          120    -1680.295   -9686.5322   -105504.73   -3199.3729    7505.6738    663.56545    72.006384    62.359358    35.924992   -38957.184   -308871.92 
    1050    1509.5007    161313.17    72.006412    72.006413    35.925006          120    26349.383    23870.932   -56017.943   -809.07295    5727.8906   -930.19089    72.006412    62.359383    35.925006   -1932.5426   -309001.95 
    1060    1431.0497    161313.39    72.006444    72.006444    35.925022          120    117690.56    121381.98    75993.913    5236.2517    4442.4496   -2788.0139    72.006444     62.35941    35.925022    105022.15    -308831.7 
    1070    1528.1029    161313.63     72.00648    72.006481     35.92504          120    58225.762    54407.721   -11462.764    230.69632    6898.1468   -1777.5978     72.00648    62.359442     35.92504    33723.573   -309035.55 
    1080    1428.6208     161313.9     72.00652    72.006521     35.92506          120   -9871.1056   -15847.121   -101613.33   -4271.2439    6650.1741   -1238.8567     72.00652    62.359476     35.92506   -42443.851   -308821.07 
    1090    1512.7814    161314.19    72.006563    72.006564    35.925082          120    85503.698    87960.896    36707.022    3422.1629    4546.0073   -1656.8587    72.006563    62.359514    35.925082    70057.206   -308996.61 
    1100    1457.0394    161314.51    72.006611    72.006612    35.925106          120     115141.1     116583.8    76312.247    4568.5655    6234.5409   -2295.6505    72.006611    62.359555    35.925106    102679.05   -308875.89 
    1110    1463.7739    161314.87    72.006665    72.006666    35.925133          120    10221.215    5463.3348   -64143.324   -3591.0869    7611.0587   -3597.1716    72.006665    62.359602    35.925133   -16152.925   -308887.23 
    1120    1499.6326    161315.26    72.006723    72.006724    35.925161          120    26267.353     25121.54   -36598.912   -1344.5655    4979.8906   -2204.7025    72.006723    62.359652    35.925161    4929.9934   -308961.21 
    1130    1416.4815    161315.68    72.006786    72.006786    35.925193          120    126985.33    130125.99     97656.75      5486.69    5082.3071   -436.93814    72.006786    62.359706    35.925193    118256.02   -308781.83 
    1140    1525.9985    161316.15    72.006855    72.006856    35.925227          120    72836.752    73008.272    28665.775    969.33215    7473.8273   -3507.6131    72.006855    62.359766    35.925227    58170.266   -309011.26 
    1150    1402.1194    161316.65     72.00693     72.00693    35.925265          120   -8654.4354   -11505.163   -71126.406   -4156.1761    6731.9101    -5430.491     72.00693    62.359831    35.925265   -30428.668   -308746.07 
    1160    1505.3804    161317.19     72.00701     72.00701    35.925304          120    85882.743    86174.424    50178.195    2013.8567    4546.4055   -397.14505     72.00701      62.3599    35.925304    74078.454   -308962.71 
    1170    1432.8439    161317.77    72.007096    72.007096    35.925347          120    126534.67    129333.35    101916.08    4117.8477    5315.2868    -266.6234    72.007096    62.359975    35.925347    119261.37   -308805.31 
    1180    1458.0095    161318.39    72.007189    72.007189    35.925394          120    17540.677    17132.999   -26640.061   -2094.9315    7397.2879    -6184.387    72.007189    62.360055    35.925394    2677.8717   -308856.84 
    1190    1467.2943    161319.06    72.007288    72.007288    35.925443          120    20449.484    18363.701   -19610.494   -1992.9478    6111.5156   -4151.5386    72.007288    62.360141    35.925443    6400.8971   -308874.08 
    1200    1414.1118    161319.76    72.007392    72.007393    35.925495          120    129454.84     131437.5    109853.25    3362.6672    3212.2912    1263.2523    72.007392    62.360231    35.925495    123581.86   -308757.35 
    1210    1499.7454    161320.51    72.007504    72.007505    35.925551          120    83668.346    85975.319    59761.642    1286.3392    4833.0075   -2455.9664    72.007504    62.360329    35.925551    76468.436   -308937.36 
    1220    1377.8376    161321.31    72.007623    72.007624     35.92561          120   -12473.017   -13724.948   -45194.712   -2895.9139    8021.5248   -7008.9707    72.007623    62.360432     35.92561   -23797.559   -308675.59 
    1230    1503.1499    161322.15    72.007748    72.007748    35.925673          120    76870.073    77445.138    57507.541    601.30591     4102.934   -1159.8068    72.007748     62.36054    35.925673    70607.584   -308938.92 
    1240    1385.6098    161323.03    72.007879     72.00788    35.925738          120    131413.33    134455.94    119495.95    2819.5636    1516.0274    1125.0331    72.007879    62.360653    35.925738    128455.07   -308687.34 
    1250    1460.1423    161323.97    72.008019    72.008019    35.925808          120    21549.611    21492.368    1950.5507    -981.7451    6331.3385    -4649.077    72.008019    62.360774    35.925808     14997.51   -308843.31 
    1260    1426.9808    161324.95    72.008164    72.008165     35.92588          120    7344.5623    6463.4648   -10095.503   -1748.9498    7216.0819   -4581.2889    72.008164      62.3609     35.92588    1237.5081   -308770.33 
    1270    1403.6914    161325.97    72.008316    72.008316    35.925956          120       123145    125602.66    116243.54    2236.0229    1268.2923    1285.6328    72.008316    62.361031    35.925956    121663.73   -308718.46 
    1280    1473.0541    161327.04    72.008475    72.008476    35.926035          120    88990.631      89833.1    80331.902    1399.6139    2234.0036   -132.32792    72.008475    62.361169    35.926035    86385.211   -308862.44 
    1290    1371.8032    161328.16    72.008642    72.008642    35.926119          120   -17083.935   -19144.114    -30482.81   -1896.4474    7868.2714   -4750.7112    72.008642    62.361314    35.926119   -22236.953   -308644.45 
    1300    1487.9359    161329.31    72.008814    72.008814    35.926204          120    62473.848    63569.895    56151.002    486.93157    4524.4153     -1152.86    72.008814    62.361463    35.926204    60731.582   -308888.47 
    1310    1382.8964    161330.52    72.008993    72.008993    35.926294          120    130158.41    131846.32    127518.65    2536.2996    582.73159    2043.9376    72.008993    62.361618    35.926294    129841.13   -308661.55 
    1320    1476.4667    161331.77    72.009179     72.00918    35.926387          120    25945.321    24248.602    17128.921   -457.54874    4802.3397   -1664.7145    72.009179    62.361779    35.926387    22440.948    -308857.7 
    1330    1417.3094    161333.07    72.009372    72.009373    35.926483          120   -4954.0064   -4891.1963   -13489.344    -843.0143    7636.0445   -3560.1623    72.009372    62.361946    35.926483   -7778.1823   -308729.06 
    1340    1447.9941     161334.4    72.009571    72.009571    35.926582          120    112626.17    114973.84    110958.58    2549.5702    2763.5252    831.00649    72.009571    62.362118    35.926582    112852.86   -308789.77 
    1350    1479.0902    161335.78    72.009776    72.009777    35.926685          120     93745.68    93245.182    87941.018    1220.8607    2038.8313    1238.3294    72.009776    62.362296    35.926685     91643.96   -308852.47 
    1360    1413.1368    161337.21    72.009989    72.009989    35.926791          120   -18361.042   -20278.684   -32494.318   -1364.2562    6845.5128   -3342.9221    72.009989     62.36248    35.926791   -23711.348   -308708.97 
    1370    1523.2184    161338.68    72.010207    72.010207    35.926899          120    47204.764    48880.034     39206.18    1884.3004    6364.0581   -2598.7249    72.010207    62.362669    35.926899    45096.993   -308938.56 
    1380    1417.7051    161340.18    72.010431    72.010431    35.927011          120    127815.09    128903.17    122526.28    2856.0285    2601.5702    1279.4739    72.010431    62.362863    35.927011    126414.85   -308711.26 
    1390     1520.314    161341.73    72.010661    72.010662    35.927126          120    33298.191    29454.793    13612.814   -980.87348    3998.9789   -835.28207    72.010661    62.363063    35.927126    25455.266   -308926.02 
    1400    1454.9634    161343.32    72.010898    72.010898    35.927244          120   -12463.011   -14859.465   -36064.912    43.357899     7027.828   -4607.9493    72.010898    62.363267    35.927244   -21129.129   -308783.51 
    1410    1488.8096    161344.94    72.011139    72.011139    35.927364          120    102457.69    104042.97    91183.616    3721.0659    4996.0354   -1723.7398    72.011139    62.363476    35.927364    99228.093   -308852.37 
    1420    1507.2169    161346.61    72.011386    72.011387    35.927488          120     99370.63    96980.956    79234.165    1362.0187    3577.1555   -24.376169    72.011386    62.363691    35.927488    91861.917   -308887.87 
    1430    1456.1629    161348.31     72.01164     72.01164    35.927614          120   -13776.396   -19501.904   -53557.999   -1826.3765    4958.8574   -3244.9063     72.01164     62.36391    35.927614   -28945.433   -308776.44 
    1440    1544.5379    161350.04    72.011898    72.011898    35.927743          120    36792.791    36473.574    8133.9827    1914.1924    5607.4884   -4353.6656    72.011898    62.364133    35.927743    27133.449   -308961.15 
    1450    1449.5293    161351.81     72.01216    72.012161    35.927874          120    124892.02    124574.42     104128.5    3822.0108     4980.344   -2130.3244     72.01216    62.364361    35.927874    117864.98    -308755.4 
    1460    1559.0411    161353.61    72.012429    72.012429    35.928008          120    41626.533    37080.528   -2250.3404   -725.28134    4216.2457    -1843.064    72.012429    62.364593    35.928008    25485.574   -308984.73 
    1470    1470.8608    161355.45    72.012702    72.012702    35.928144          120   -16912.478   -19239.933   -68695.294   -1707.5186    3807.6096   -3276.5462    72.012702     62.36483    35.928144   -34949.235   -308794.75 
    1480     1535.495    161357.31    72.012978    72.012979    35.928282          120    92179.993    92466.497    60257.381    3440.7883    5071.1133   -4095.4461    72.012978    62.365069    35.928282    81634.624   -308927.89 
    1490    1531.7812     161359.2     72.01326    72.013261    35.928423          120    101997.05    100829.02    63683.785    2299.7575    5472.1063   -3106.0114     72.01326    62.365313    35.928423    88836.617    -308916.7 
    1500    1490.8234    161361.13    72.013547    72.013547    35.928566          120   -11275.382   -14606.866   -76758.929   -2813.9527    3161.2777   -1399.5517    72.013547    62.365561    35.928566   -34213.726   -308826.76 
    1510    1581.2292    161363.07    72.013836    72.013837     35.92871          120    25427.616    24470.756   -30339.726    515.98294    3055.2754   -3086.2197    72.013836    62.365812     35.92871    6519.5485   -309015.18 
    1520    1475.1499    161365.04    72.014129     72.01413    35.928856          120    117915.42    120349.38    80430.172    3583.3196    5667.4365   -4780.3552    72.014129    62.366066    35.928856    106231.66   -308786.51 
    1530    1593.3075    161367.04    72.014427    72.014427    35.929005          120    46104.786    44435.978   -15205.219   -792.19954    4660.2107   -2486.0461    72.014427    62.366324    35.929005    25111.849   -309034.69 
    1540    1484.9504    161369.07    72.014728    72.014728    35.929155          120   -21597.138   -26480.744   -101543.51   -2158.6677    1840.7732   -570.05261    72.014728    62.366584    35.929155   -49873.796   -308801.07 
    1550    1569.6944    161371.11    72.015031    72.015032    35.929306          120    79837.534    82022.877    27716.948    2152.5256    3432.6366   -3798.5603    72.015031    62.366847    35.929306    63192.453   -308978.44 
    1560     1523.135    161373.17    72.015338    72.015339     35.92946          120    100786.76    103601.28    50571.898    1482.0332     4982.179   -4573.4684    72.015338    62.367113     35.92946    84986.644   -308876.42 
    1570     1520.278    161375.26    72.015649    72.015649    35.929615          120   -7893.0193   -13975.169   -93783.167    -2380.008     2962.373   -1117.1647    72.015649    62.367382    35.929615   -38550.452    -308867.5 
    1580    1567.3968    161377.36    72.015961    72.015962     35.92977          120    14843.455    11927.326   -63675.726   -513.61813    1598.1563    -1328.647    72.015961    62.367653     35.92977   -12301.648   -308965.09 
    1590    1475.2417    161379.48    72.016276    72.016277    35.929928          120    110590.33     115104.7    60506.851     2264.992    3355.4675    -4473.167    72.016276    62.367925    35.929928     95400.63   -308765.94 
    1600    1594.1911    161381.62    72.016594    72.016595    35.930086          120    51100.179    49463.115   -22208.081   -228.46645    4058.7799   -4058.7584    72.016594    62.368201    35.930086    26118.404   -309015.68 
    1610     1458.952    161383.77    72.016915    72.016916    35.930246          120   -24857.939   -31328.357    -123551.3   -2372.6883    2129.4958   -1280.5484    72.016915    62.368479    35.930246   -59912.533   -308726.14 
    1620    1570.5775    161385.94    72.017237    72.017238    35.930407          120     69618.06    70832.904    1579.2499    1081.9174    2351.8019   -2691.8444    72.017237    62.368758    35.930407    47343.405   -308960.16 
    1630     1490.695    161388.12    72.017562    72.017562    35.930569          120    102829.87    105553.98     42311.17    2111.4729    4072.3375   -5107.5849    72.017562    62.369039    35.930569    83565.008   -308787.31 
    1640    1514.3741    161390.32     72.01789     72.01789    35.930732          120   -2974.3928   -7292.8727    -99612.96   -1826.9298    2904.8028    -3684.511     72.01789    62.369323    35.930732   -36626.742   -308835.91 
    1650    1525.2486    161392.53    72.018219    72.018219    35.930897          120    6420.0456    2419.5469   -87914.475   -1314.9477      2236.06   -1415.0984    72.018219    62.369608    35.930897   -26358.294   -308856.04 
    1660    1468.3654    161394.76    72.018549     72.01855    35.931062          120     108993.6    111354.67    45799.291    2703.0266    4045.8825   -3875.9406    72.018549    62.369894    35.931062    88715.854   -308732.47 
    1670    1549.8587       161397    72.018883    72.018883    35.931228          120     59415.79    59163.107   -19827.261    290.95357    3336.8857   -5682.8987    72.018883    62.370183    35.931228    32917.212    -308903.4 
    1680    1436.8393    161399.26    72.019219    72.019219    35.931396          120   -25371.185   -31625.362   -133392.13   -2916.4185    1536.3689   -2365.9236    72.019219    62.370473    35.931396   -63462.891   -308660.29 
    1690    1548.0546    161401.52    72.019555    72.019556    35.931563          120    64708.979    62936.978   -18045.386    1056.1037    3333.0621   -1921.2478    72.019555    62.370765    35.931563    36533.524   -308893.92 
    1700    1447.0778     161403.8    72.019894    72.019895    35.931733          120    109491.36    110582.14    42525.744    2028.1497    4092.0637     -5198.04    72.019894    62.371059    35.931733    87533.081   -308676.78 
    1710    1507.7393     161406.1    72.020236    72.020237    35.931903          120    5580.1739    321.18266   -94595.465    -2353.937    1513.8442   -4738.5033    72.020236    62.371355    35.931903   -29564.703   -308802.64 
    1720    1487.6558    161408.41     72.02058     72.02058    35.932075          120    3108.6389   -2263.4336   -102758.29   -1561.7953    1689.5786     -1391.26     72.02058    62.371652    35.932075   -33971.027    -308757.2 
    1730    1455.8613    161410.73    72.020925    72.020925    35.932247          120    110115.84    110097.04      38107.2     1687.132     4337.411   -3277.5386    72.020925    62.371951    35.932247    86106.693   -308686.77 
    1740    1530.9911    161413.07    72.021273    72.021273     35.93242          120    71870.326    67947.937   -10188.256   -697.36799    3264.6676   -5788.0248    72.021273    62.372252     35.93242    43210.002    -308842.9 
    1750    1428.2878    161415.42    72.021623    72.021624    35.932595          120   -20599.771   -27832.219   -133291.46   -2645.7422    559.95186   -3397.9793    72.021623    62.372556    35.932595   -60574.482   -308622.21 
    1760     1536.008    161417.79    72.021975    72.021975    35.932771          120    60637.545    58610.077   -30570.952   -250.20313     3106.639    -1791.585    72.021975     62.37286    35.932771     29558.89   -308847.92 
    1770    1449.3534    161420.17    72.022329    72.022329    35.932947          120    118779.71    115883.15    46072.109   -198.33952     5485.512   -4384.8524    72.022329    62.373167    35.932947    93578.323   -308660.09 
    1780    1513.3728    161422.57    72.022687    72.022687    35.933126          120    18054.851    10721.817   -80744.705   -2019.7924    1559.7188   -5648.9687    72.022687    62.373477    35.933126   -17322.679   -308793.65 
    1790    1485.1783    161424.99    72.023046    72.023047    35.933305          120   -804.13881   -4277.0029   -107082.49   -1488.1549    590.98525   -2520.5973    72.023046    62.373788    35.933305   -37387.876   -308730.59 
    1800    1481.5411    161427.42    72.023407    72.023408    35.933485          120    111515.68    109139.28    32963.372    -402.5975    5952.3512    -2307.484    72.023407    62.374101    35.933485    84539.443   -308719.18 
    1810    1533.8559    161429.87    72.023772    72.023773    35.933667          120    86174.488    80118.003    5230.4229   -991.21221     4754.082   -5486.5503    72.023772    62.374417    35.933667    57174.305   -308827.68 
    1820    1444.5933    161432.35     72.02414    72.024141    35.933851          120   -17563.787   -23009.352   -122467.11   -1782.3291   -407.17126   -5108.6892     72.02414    62.374736    35.933851   -54346.748   -308634.97 
    1830    1561.5116    161434.83     72.02451    72.024511    35.934035          120    55115.749    52953.577   -35335.795   -437.25781    3372.0925   -1554.8766     72.02451    62.375056    35.934035    24244.511   -308879.82 
    1840    1448.1106    161437.34    72.024883    72.024883    35.934221          120    126021.51    122769.27    55554.453     546.6868    6923.8347   -3355.8523    72.024883    62.375379    35.934221    101448.41   -308636.24 
    1850    1545.2471    161439.87    72.025259     72.02526    35.934409          120    29038.432    22674.281   -60227.636   -1031.8833    1866.8227   -6328.2761    72.025259    62.375705    35.934409   -2838.3077   -308839.08 
    1860     1492.053    161442.43    72.025639    72.025639    35.934599          120   -4625.1389   -8546.9673   -103070.48   -1116.1273    343.48232   -3315.8743    72.025639    62.376034    35.934599   -38747.527   -308722.59 
    1870     1504.455    161444.99    72.026021    72.026021    35.934789          120    108522.03    107482.52    37965.034    1766.4144    6004.1764   -1566.6379    72.026021    62.376364    35.934789    84656.527   -308745.76 
    1880    1551.1887    161447.59    72.026407    72.026407    35.934982          120    95322.782    91703.367    26811.123    1226.9576    4954.5741   -4445.7142    72.026407    62.376698    35.934982    71279.091   -308841.13 
    1890    1470.5783    161450.21    72.026796    72.026797    35.935176          120   -12936.118   -18656.152   -106032.51   -1508.3033     477.0292   -5322.9387    72.026796    62.377036    35.935176   -45874.928   -308666.88 
    1900    1581.7739    161452.85    72.027189    72.027189    35.935372          120    47906.793    46313.143    -31660.31     1101.644    3711.8946   -1709.5488    72.027189    62.377376    35.935372    20853.209   -308899.88 
    1910     1469.012    161455.51    72.027585    72.027585     35.93557          120    127046.81    126087.12    71519.995     3033.204    5950.2418   -1817.8651    72.027585    62.377719     35.93557    108217.98   -308655.89 
    1920    1583.1256    161458.21    72.027985    72.027986    35.935769          120     38585.06    34595.238    -34207.89   -179.93039    2755.8491   -4483.9671    72.027985    62.378066    35.935769    12990.803   -308895.36 
    1930    1490.0283    161460.92     72.02839     72.02839    35.935971          120   -8354.5783   -11697.435   -93458.131   -644.72144    2340.6539   -3440.8064     72.02839    62.378416    35.935971   -37836.715   -308694.81 
    1940    1552.6384    161463.66    72.028797    72.028797    35.936174          120    103064.67    101780.75    46663.831    2607.0541    4725.0488   -1203.6342    72.028797    62.378769    35.936174    83836.416   -308823.59 
    1950    1547.5769    161466.43    72.029209    72.029209     35.93638          120    102974.25    101069.63    51435.881    1560.1516    4215.9121   -1840.8685    72.029209    62.379125     35.93638    85159.921   -308810.01 
    1960     1501.031    161469.24    72.029626    72.029626    35.936588          120   -8788.5223   -12156.544    -84138.23   -1554.1877    2939.3528    -4219.129    72.029626    62.379486    35.936588   -35027.766   -308708.41 
    1970    1596.1855    161472.06    72.030046    72.030047    35.936797          120    39513.053    35632.071   -25207.151     330.7476    3281.5776   -3351.3357    72.030046     62.37985    35.936797    16645.991   -308906.72 
    1980    1481.6755    161474.92     72.03047    72.030471    35.937009          120    129034.79    126588.62    87760.645    2049.6901     3851.956      16.3132     72.03047    62.380218    35.937009    114461.35   -308660.39 
    1990    1604.9514    161477.81      72.0309      72.0309    35.937224          120    47188.312    46203.226   -6784.3564   -668.54115    4176.7129   -1800.9738      72.0309     62.38059    35.937224     28869.06    -308919.3 
    2000    1497.5281    161480.73    72.031334    72.031335     35.93744          120   -13272.217   -17228.182   -79786.077   -2124.5172    3831.7679   -5875.2417    72.031334    62.380966     35.93744   -36762.159   -308687.57 
    2010    1577.9589    161483.67    72.031772    72.031772    35.937659          120    98385.844    92899.265    54868.057    702.04032     3559.001   -1505.8869    72.031772    62.381345    35.937659    82051.055   -308855.78 
    2020    1541.6376    161486.65    72.032215    72.032216     35.93788          120    109810.59    108276.29    73575.903     1015.083    4268.3255    1147.1509    72.032215    62.381729     35.93788    97220.927   -308774.88 
    2030    1533.1367    161489.67    72.032664    72.032664    35.938103          120   -6083.1266   -5854.9279   -61458.529    -1982.949    4644.9367   -4923.9889    72.032664    62.382117    35.938103   -24465.528    -308753.8 
    2040    1579.6379    161492.71    72.033116    72.033117    35.938329          120    30734.132    25368.464   -19540.345    -1549.747    4252.9809   -5492.9194    72.033116    62.382509    35.938329    12187.417   -308850.09 
    2050    1495.6316    161495.79    72.033573    72.033574    35.938557          120    130335.86    123885.93    99925.214    1364.2692    4588.0653    1047.4701    72.033573    62.382905    35.938557       118049   -308668.01 
    2060    1598.6883     161498.9    72.034037    72.034037    35.938789          120    56588.819    55432.129    17150.923    352.11538    4636.3955   -1509.8956    72.034037    62.383306    35.938789    43057.291   -308884.04 
    2070    1481.0218    161502.05    72.034505    72.034506    35.939022          120   -17535.422   -17936.518    -69005.97   -2088.1774    4609.8633    -7244.001    72.034505    62.383712    35.939022    -34825.97   -308632.03 
    2080    1575.2194    161505.23    72.034978    72.034978    35.939258          120    91299.887    83562.878    56764.928    -20.80808    5272.2483   -2060.1818    72.034978    62.384121    35.939258    77209.231   -308828.65 
    2090    1517.6379    161508.45    72.035456    72.035456    35.939496          120    119573.84    110507.41        91001      1885.92    4843.7618    193.10667    72.035456    62.384535    35.939496    107027.42   -308703.44 
    2100    1524.2971     161511.7     72.03594     72.03594    35.939738          120    1212.8933    513.32566   -44325.742   -772.22231    4484.4698   -4717.7693     72.03594    62.384955    35.939738   -14199.841   -308715.15 
    2110    1561.3075    161514.99    72.036429    72.036429    35.939982          120    20350.224    18666.187   -22309.685   -1804.6175    5582.5138   -4371.2174    72.036429    62.385378    35.939982    5568.9091    -308790.4 
    2120    1494.0708    161518.31    72.036922    72.036923    35.940228          120    130975.86    119179.75    104995.25    1521.3435    5334.5057   -997.89673    72.036922    62.385805    35.940228    118383.62   -308644.14 
    2130    1588.6629    161521.67    72.037422    72.037422    35.940477          120    69811.202    61554.099    34298.834    1085.9205    4358.3449    -1600.382    72.037422    62.386238    35.940477    55221.378   -308842.18 
    2140    1487.6502    161525.07    72.037927    72.037928    35.940729          120   -19780.378   -18101.471   -68210.087    -2073.239    5515.9429   -2838.8502    72.037927    62.386675    35.940729   -35363.979      -308624 
    2150     1585.022     161528.5    72.038436    72.038437    35.940984          120    82413.499    76515.337    50025.303   -500.99606    5342.2174   -2473.4894    72.038436    62.387117    35.940984     69651.38   -308827.59 
    2160     1514.165    161531.96    72.038952    72.038952    35.941241          120    126123.51    114115.62    99638.478    1944.6136    3813.6711   -1636.2786    72.038952    62.387563    35.941241    113292.53   -308673.99 
    2170    1546.5246    161535.47    72.039473    72.039474    35.941501          120    9066.2575    6384.3123    -35836.41    -426.9095    5588.8198    7.7501658    72.039473    62.388014    35.941501     -6795.28    -308739.5 
    2180    1556.4639    161539.01    72.039999        72.04    35.941763          120    12594.245      12824.3   -30962.317    -2206.874    6032.1382   -946.68091    72.039999     62.38847    35.941763   -1847.9241   -308758.46 
    2190    1498.0776    161542.58     72.04053    72.040531    35.942028          120    126889.02    118709.22       100417    1046.4957    2537.3187   -3297.9419     72.04053     62.38893    35.942028    115338.41   -308631.15 
    2200    1596.5323    161546.19    72.041067    72.041068    35.942296          120    78337.404    72097.379    43807.587    1206.9114    4477.9787   -752.61145    72.041067    62.389395    35.942296    64747.457   -308836.75 
    2210    1474.8101    161549.84     72.04161     72.04161    35.942567          120   -18968.606     -18665.1   -68150.988   -2017.6823    8395.3993    2249.5201     72.04161    62.389865    35.942567   -35261.565   -308575.96 
    2220    1594.7809    161553.52    72.042157    72.042157     35.94284          120    73173.156    70262.199    37155.997   -526.08025     2870.226   -1983.2595    72.042157    62.390339     35.94284    60197.117   -308827.19 
    2230    1505.8866    161557.24    72.042709     72.04271    35.943115          120    127089.46    123045.12    98644.116    1351.1254    1306.3658   -3532.1184    72.042709    62.390817    35.943115    116259.57    -308634.5 
    2240    1561.8515       161561    72.043268    72.043269    35.943394          120    16970.877    15410.837   -28853.384   -318.40511    8546.5118    1655.2569    72.043268    62.391301    35.943394    1176.1098   -308750.86 
    2250    1551.4245    161564.79    72.043832    72.043832    35.943675          120     5436.711    3173.9832   -42111.538   -604.92904    6846.0745    1738.2058    72.043832    62.391789    35.943675   -11166.948   -308725.09 
    2260    1526.9793    161568.61    72.044399      72.0444    35.943959          120    119401.74    118913.91    88428.244    378.90809   -296.06955   -3173.7367    72.044399    62.392281    35.943959    108914.63   -308669.33 
    2270    1598.7825    161572.47    72.044973    72.044974    35.944245          120    85072.734     85691.38    46537.555    47.546789    4111.6751   -1780.4861    72.044973    62.392778    35.944245     72433.89   -308818.97 
    2280    1493.7715    161576.37    72.045553    72.045553    35.944534          120   -18027.623   -21093.745   -72112.198     719.7749    9561.8958    2761.8045    72.045553     62.39328    35.944534   -37077.856   -308592.69 
    2290    1620.6464     161580.3    72.046136    72.046137    35.944825          120    61399.754    60745.703    20837.484    569.56125    2192.0866    5.4400984    72.046136    62.393785    35.944825     47660.98   -308858.94 
    2300    1497.5017    161584.25    72.046724    72.046725    35.945119          120    126580.01    130100.39     92321.37   -1026.2517    129.75191   -2908.2463    72.046724    62.394294    35.945119    116333.92   -308594.57 
    2310     1597.873    161588.25    72.047319    72.047319    35.945415          120    24027.654    23797.537       -28218    282.18908    6479.9695   -5.4245155    72.047319    62.394809    35.945415    6535.7305   -308804.56 
    2320    1538.8293    161592.28    72.047917    72.047918    35.945714          120   -3796.4421   -6128.2856   -56289.213    2019.8378    5485.6007    1515.3663    72.047917    62.395327    35.945714   -22071.313    -308676.3 
    2330    1548.6947    161596.33     72.04852     72.04852    35.946014          120    112340.96    114460.66    73731.353   -664.16488    204.77042   -1222.1331     72.04852    62.395849    35.946014    100177.66   -308694.32 
    2340    1596.6247    161600.43    72.049128    72.049128    35.946318          120    91074.846    93823.516    44543.461   -1243.0491    2155.7673   -2487.1183    72.049128    62.396376    35.946318    76480.607   -308792.34 
    2350    1512.8166    161604.55    72.049741    72.049742    35.946624          120   -19474.578   -19727.886   -77785.182    1967.5187    5554.2547   -546.20478    72.049741    62.396907    35.946624   -38995.882   -308611.25 
    2360    1624.3053     161608.7    72.050358    72.050358    35.946931          120    50013.275    49275.125    760.81306    1286.0846    2759.0322    482.34752    72.050358    62.397441    35.946931    33349.738   -308844.57 
    2370    1519.9857    161612.88    72.050979    72.050979    35.947241          120    127993.63    129071.75    82287.988    -1229.721    923.97382   -2153.7175    72.050979    62.397978    35.947241    113117.79   -308618.66 
    2380    1623.8312    161617.09    72.051605    72.051605    35.947553          120    29145.368    31947.723   -28037.356    429.62581    3269.9456   -3316.7484    72.051605    62.398521    35.947553    11018.579   -308836.49 
    2390    1547.6462    161621.33    72.052235    72.052235    35.947868          120   -13511.127   -13378.204    -72542.55    2565.8598    4409.9943   -262.80811    72.052235    62.399066    35.947868    -33143.96    -308671.4 
    2400    1598.1394    161625.59    72.052868    72.052869    35.948184          120    106498.43    103449.34    55336.514    84.214127    1914.2923   -641.88814    72.052868    62.399615    35.948184    88428.093   -308774.57 
    2410    1599.3452    161629.89    72.053506    72.053507    35.948502          120    97184.818    98743.607    42818.436   -925.43356    1794.9814   -3308.6666    72.053506    62.400167    35.948502    79582.287   -308774.33 
    2420    1549.4469    161634.21    72.054149    72.054149    35.948823          120   -20774.017   -16329.781   -84375.903    2251.0065    3532.5548   -2295.7804    72.054149    62.400724    35.948823   -40493.234   -308665.34 
    2430    1636.4008    161638.56    72.054794    72.054795    35.949145          120    39574.702    35670.816   -20891.834    2045.4861    2792.5369   -908.04054    72.054794    62.401283    35.949145    18117.894   -308846.86 
    2440    1526.0015    161642.93    72.055443    72.055444    35.949469          120    129057.93     125271.1    74508.023   -1386.8488    1908.7615   -2367.9523    72.055443    62.401845    35.949469    109612.35   -308609.86 
    2450    1629.8807    161647.33    72.056097    72.056098    35.949795          120    35074.203    40276.982   -27695.238    465.37242    2286.4931   -3199.4197    72.056097    62.402411    35.949795    15885.316    -308827.8 
    2460    1540.9253    161651.75    72.056755    72.056755    35.950123          120   -19703.174   -17651.011   -89577.121    3336.0099    2587.7456   -2875.6912    72.056755    62.402981    35.950123   -42310.435   -308636.22 
    2470    1589.9964    161656.19    72.057414    72.057415    35.950452          120    100197.73    92656.857    39140.691    -150.3681    2430.1633   -2724.7322    72.057414    62.403552    35.950452    77331.759   -308737.88 
    2480    1586.4288    161660.66    72.058078    72.058079    35.950783          120    103373.75    102091.84    42851.569   -1399.5977    2192.8419   -2510.3438    72.058078    62.404127    35.950783    82772.388   -308726.48 
    2490    1549.2043    161665.16    72.058747    72.058747    35.951117          120    -18246.83   -10497.385   -91063.498    2615.6026    1504.0001   -4042.2829    72.058747    62.404706    35.951117   -39935.904   -308644.48 
    2500    1621.9651    161669.67    72.059417    72.059418    35.951451          120     29385.17     27155.13   -42224.166    2203.2103    1787.8068      -4630.6    72.059417    62.405287    35.951451    4772.0446   -308796.08 
    2510    1532.9448     161674.2    72.060091    72.060091    35.951787          120    127874.32    120701.74     65130.81   -1143.8232     2442.985   -1933.4763    72.060091     62.40587    35.951787    104568.95   -308602.98 
    2520    1638.9877    161678.77    72.060769    72.060769    35.952125          120    43892.654    47171.258   -25984.274     799.2882    1178.4678   -2850.3592    72.060769    62.406457    35.952125    21693.213   -308825.38 
    2530    1536.0704    161683.35     72.06145     72.06145    35.952465          120   -25192.031   -19565.016   -104469.13    2919.4776   -137.21581   -6071.8292     72.06145    62.407047    35.952465    -49742.06   -308604.23 
    2540    1615.2943    161687.95    72.062132    72.062133    35.952806          120    90166.871     85111.14    19834.428    690.86464     1556.277    -3368.684    72.062132    62.407638    35.952806     65037.48   -308768.68 
    2550    1579.1439    161692.57    72.062819    72.062819    35.953148          120    109845.73    105763.29    42701.855    240.89636    2090.9535   -1585.1209    72.062819    62.408232    35.953148    86103.627    -308689.4 
    2560    1557.8242    161697.21    72.063509     72.06351    35.953493          120   -11165.368   -7141.9424   -92680.946    2296.0402   -723.82665   -4494.3824    72.063509     62.40883    35.953493   -36996.085   -308641.63 
    2570    1621.4483    161701.87    72.064202    72.064202    35.953838          120    19515.842    19391.251   -61492.645    1997.0037   -387.79907   -5012.4797    72.064202     62.40943    35.953838   -7528.5175   -308773.52 
    2580    1520.8901    161706.55    72.064896    72.064897    35.954185          120    126155.65    120035.33    57169.513    541.83489     2759.649   -2699.3505    72.064896    62.410032    35.954185    101120.16    -308557.3 
    2590    1636.5355    161711.26    72.065595    72.065596    35.954534          120    56874.942    54905.163   -20751.685    1168.8067    1255.7705   -2891.4666    72.065595    62.410637    35.954534    30342.807    -308800.3 
    2600    1517.6886    161715.98    72.066297    72.066298    35.954884          120   -24769.502   -24307.147   -113124.55    2235.8204    -1432.982   -4238.6404    72.066297    62.411245    35.954884   -54067.065   -308544.67 
    2610    1617.4495    161720.72    72.067001    72.067001    35.955235          120    83544.541    78274.787    7025.5855    1083.3173    1966.2337   -3791.8216    72.067001    62.411854    35.955235    56281.638   -308754.12 
    2620    1553.0874    161725.48    72.067708    72.067708    35.955587          120    117182.33    111943.08    44114.533    129.45582     3819.889   -3301.3131    72.067708    62.412466    35.955587    91079.979   -308613.58 
    2630    1575.9841    161730.26    72.068418    72.068419    35.955942          120    -820.7012   -2762.0289    -88686.42    1382.8275    265.86785    -3333.345    72.068418    62.413082    35.955942   -30756.383   -308659.14 
    2640    1599.6113    161735.06    72.069131    72.069132    35.956298          120    13371.456    9906.4651   -71456.426    1726.7726    207.54305   -3076.7863    72.069131    62.413699    35.956298   -16059.502   -308706.58 
    2650    1534.0556    161739.88    72.069847    72.069847    35.956655          120    124644.88    118422.73    52530.749    177.13929    4056.0775   -3437.4042    72.069847    62.414319    35.956655    98532.784   -308563.92 
    2660    1641.2218    161744.72    72.070566    72.070566    35.957013          120    68724.332    64321.704   -12520.432    409.87223    3131.5221   -3600.0727    72.070566    62.414942    35.957013    40175.201   -308788.33 
    2670    1513.4831    161749.58    72.071288    72.071289    35.957374          120   -23769.588   -24829.406   -113686.06     1438.934   -226.89219   -3119.7296    72.071288    62.415567    35.957374   -54095.018   -308514.45 
    2680    1639.7995    161754.46    72.072012    72.072013    35.957735          120    74537.102    70092.961   -1075.7612    609.12508    1554.4487   -3265.0019    72.072012    62.416194    35.957735    47851.434   -308779.36 
    2690    1546.5541    161759.36     72.07274     72.07274    35.958098          120    122387.47    116255.36    50741.977    535.42513    4088.9351   -3397.8198     72.07274    62.416824    35.958098    96461.604   -308577.64 
    2700    1600.5772    161764.28    72.073471    72.073472    35.958463          120    8742.4588    7055.3514   -78571.351    790.93728     1707.324   -4540.6828    72.073471    62.417458    35.958463   -20924.513   -308689.84 
    2710    1592.8723    161769.22    72.074205    72.074206    35.958829          120    4622.1465    4333.9162   -78770.341    45.025911   -919.39257   -4613.3288    72.074205    62.418093    35.958829   -23271.426   -308669.79 
    2720    1562.7012    161774.18    72.074941    72.074942    35.959196          120    120064.38    115581.66    54389.937    348.54972    2164.2487   -2985.0779    72.074941    62.418731    35.959196    96678.661   -308602.59 
    2730    1634.0695    161779.17    72.075682    72.075682    35.959566          120    78880.879    73982.488    3109.9028    1163.8461    3426.3732   -4152.6125    72.075682    62.419372    35.959566     51991.09   -308751.26 
    2740    1536.5297    161784.18    72.076426    72.076426    35.959937          120   -22053.009   -21883.499   -111193.75    233.53795   -281.69741   -6252.5704    72.076426    62.420016    35.959937   -51710.085   -308540.74 
    2750    1649.9711     161789.2    72.077172    72.077172    35.960309          120    63609.937    63958.139   -5528.6595   -748.66649   -491.31274    -4070.262    72.077172    62.420662    35.960309    40679.806   -308778.75 
    2760    1548.9707    161794.24    72.077921    72.077921    35.960683          120     125763.2    120498.57    62951.214    594.22664    2826.4932   -2645.0858    72.077921    62.421311    35.960683       103071   -308561.03 
    2770     1629.827    161799.32    72.078675    72.078675    35.961059          120    19874.547    15355.596   -64953.655    1814.3466    1828.2532   -5146.2461    72.078675    62.421964    35.961059   -9907.8376   -308729.34 
    2780    1590.3304    161804.41    72.079431    72.079432    35.961436          120   -1982.6685    545.17571   -81338.485    142.35506   -1204.9117   -5420.8156    72.079431    62.422619    35.961436   -27591.993   -308642.72 
    2790    1585.1507    161809.53     72.08019    72.080191    35.961815          120    114792.69    113447.95    57085.451   -646.37462    781.07306   -2688.0194     72.08019    62.423276    35.961815    95108.698   -308628.55 
    2800    1640.8017    161814.67    72.080954    72.080954    35.962196          120    90165.413    82433.448    19715.632     1413.376    2380.9251   -3000.3132    72.080954    62.423938    35.962196    64104.831   -308743.39 
    2810    1548.9186    161819.84    72.081721    72.081722    35.962579          120   -17284.148    -18948.12   -102413.81     2184.172    481.84526   -4949.5864    72.081721    62.424602    35.962579   -46215.361   -308546.13 
    2820    1653.7118    161825.02    72.082491    72.082492    35.962963          120    54712.561    57443.466   -8561.4939    432.76122   -434.74471   -3909.2614    72.082491    62.425269    35.962963    34531.511   -308765.43 
    2830    1558.9588    161830.24    72.083265    72.083266    35.963349          120    130675.02    123783.99    73946.469     467.2843    1291.6371   -2256.6066    72.083265    62.425939    35.963349    109468.49   -308560.31 
    2840     1635.095    161835.48    72.084044    72.084044    35.963738          120    31888.039    24194.135   -44997.618    1869.9299    2211.2765   -3806.8181    72.084044    62.426614    35.963738    3694.8519   -308719.36 
    2850     1588.557    161840.75    72.084826    72.084826    35.964128          120    -6487.982   -3629.1583   -79083.146     2086.163    72.817014   -5087.7729    72.084826    62.427291    35.964128   -29733.429   -308617.34 
    2860     1603.691    161846.03    72.085611    72.085611    35.964519          120    112279.37    108862.96    59098.933     1540.832   -504.00641   -2867.3743    72.085611    62.427971    35.964519    93413.755   -308645.91 
    2870    1636.8471    161851.35      72.0864    72.086401    35.964914          120    101403.68    90488.811    41072.278    1299.4169    1992.7177   -2797.1848      72.0864    62.428655    35.964914    77654.923   -308713.49 
    2880    1564.3131    161856.71    72.087195    72.087195     35.96531          120   -14028.059   -15711.496   -87950.323    1635.9922    1859.7582   -5004.8557    72.087195    62.429343     35.96531    -39229.96   -308556.18 
    2890    1670.8031    161862.08    72.087992    72.087993    35.965708          120    48793.024    48992.903   -10614.167     2763.116   -1338.8376   -4380.4382    72.087992    62.430033    35.965708    29057.254   -308779.31 
    2900     1556.699    161867.48    72.088794    72.088795    35.966108          120    135011.35     124967.5    85409.247    2358.9779    60.790037   -2797.0319    72.088794    62.430728    35.966108    115129.36   -308533.95 
    2910    1664.4928    161872.91    72.089601    72.089601     35.96651          120    40187.163    33410.607   -22747.223    820.75441    3268.8978   -4108.3133    72.089601    62.431426     35.96651    16950.183   -308759.52 
    2920    1586.3027    161878.37    72.090412    72.090412    35.966915          120   -10191.567   -8969.0054   -75400.911    1668.6567    1265.8234   -5200.2486    72.090412    62.432129    35.966915   -31520.495   -308590.73 
    2930    1620.9941    161883.86    72.091226    72.091227    35.967321          120    108580.68    102898.57     59340.44    3227.8161   -1417.3598   -3918.0454    72.091226    62.432834    35.967321     90273.23    -308661.5 
    2940    1638.7795    161889.38    72.092045    72.092046     35.96773          120    107705.45    99592.859    57403.203    1911.2609    1864.3183   -3993.7119    72.092045    62.433543     35.96773    88233.838   -308695.83 
    2950    1572.6847    161894.93     72.09287     72.09287    35.968141          120   -10980.294    -11579.31   -73628.839   -42.314578    4880.4515   -4789.1766     72.09287    62.434257    35.968141   -32062.814   -308553.07 
    2960    1665.8402    161900.51    72.093697    72.093698    35.968554          120    40926.443    39432.712   -13653.873    1838.0698    741.52181   -4112.8023    72.093697    62.434974    35.968554    22235.094   -308748.37 
    2970     1554.641    161906.11    72.094529     72.09453    35.968969          120    133878.76     128032.9    89879.871    3218.2556   -235.95419   -4447.8927    72.094529    62.435695    35.968969    117263.84   -308508.72 
    2980    1668.0072    161911.76    72.095367    72.095368    35.969387          120    48780.434    45611.117   -5348.2715    519.97306    4604.0162   -4849.4336    72.095367     62.43642    35.969387    29681.093   -308747.14 
    2990    1560.8839    161917.43    72.096209     72.09621    35.969807          120   -13316.181    -13982.14    -73967.13   -589.57328    4937.8236   -3533.3246    72.096209    62.437149    35.969807    -33755.15   -308516.76 
    3000    1642.4447    161923.13    72.097055    72.097055    35.970229          120    100428.02    97790.526    55277.629    2478.3187    473.95376   -4408.5095    72.097055    62.437881    35.970229    84498.726   -308686.61 
    3010    1609.2569    161928.86    72.097905    72.097906    35.970653          120    113529.45    109592.55     68716.68    2529.5734    1971.1575   -5433.1247    72.097905    62.438618    35.970653     97279.56   -308613.34 
    3020    1591.2725    161934.63    72.098761    72.098762     35.97108          120   -4324.4411   -6710.7092   -64004.211   -1487.1911    5794.9819   -3671.0508    72.098761    62.439359     35.97108    -25013.12   -308572.31 
    3030    1660.0815    161940.42    72.099621    72.099621    35.971509          120    30913.082    30434.617   -21534.358   -421.02588    3304.1411   -3105.3033    72.099621    62.440104    35.971509    13271.114   -308715.43 
    3040    1559.2768    161946.24    72.100485    72.100485     35.97194          120    132450.21    129274.46    91362.551    3725.3862    1171.9986    -5681.791    72.100485    62.440852     35.97194    117695.74   -308498.51 
    3050    1678.1427     161952.1    72.101354    72.101355    35.972374          120    58347.619    53862.475    8183.5153    849.08561    3265.0383   -4966.1761    72.101354    62.441605    35.972374    40131.203   -308748.01 
    3060    1561.5742    161957.99    72.102228    72.102229     35.97281          120   -18001.635   -18859.114   -74415.913   -3219.0372    4733.7423    -2184.402    72.102228    62.442362     35.97281   -37092.221   -308497.34 
    3070    1654.5663     161963.9    72.103105    72.103106    35.973248          120    91680.073    90699.312    47176.943    1814.8486    2808.3424   -4307.9895    72.103105    62.443122    35.973248    76518.776   -308692.47 
    3080    1598.4072    161969.85    72.103988    72.103988    35.973688          120    118130.58    113466.27    76360.248    4415.5453    1493.3275   -5624.1713    72.103988    62.443886    35.973688    102652.37    -308569.6 
    3090    1610.5605    161975.83    72.104876    72.104876    35.974131          120   -1526.9698   -4465.0586   -53054.132    -2047.497    3481.8606   -3113.0783    72.104876    62.444655    35.974131   -19682.054   -308593.17 
    3100    1635.0043    161981.84    72.105767    72.105767    35.974576          120    19406.836     20518.48   -30747.031   -2820.8564    4992.6196   -2403.9646    72.105767    62.445426    35.974576    3059.4282   -308642.53 
    3110    1572.8496    161987.87    72.106662    72.106662    35.975022          120    128187.56    125370.53    88130.662    4758.7194    2142.3124   -3935.3801    72.106662    62.446202    35.975022    113896.25   -308506.96 
    3120    1664.8241    161993.94    72.107562    72.107563    35.975472          120    63560.941    59734.683    19943.639    2684.4112    1739.9437   -3751.6246    72.107562    62.446982    35.975472    47746.421   -308699.71 
    3130     1555.867    162000.04    72.108467    72.108468    35.975923          120   -23315.382   -22131.888   -76193.173   -5038.8947    5242.8785   -2419.6001    72.108467    62.447765    35.975923   -40546.814    -308465.8 
    3140    1662.3098    162006.15    72.109375    72.109376    35.976376          120    79529.356    79162.759    35527.969    702.24745    4035.1543    -1331.973    72.109375    62.448551    35.976376    64740.028   -308688.04 
    3150    1592.1464     162012.3    72.110288    72.110288    35.976831          120    119188.37    115872.04    80919.095    5895.2607    1623.3821   -1604.9289    72.110288    62.449342    35.976831     105326.5   -308535.89 
    3160    1626.2189    162018.49    72.111205    72.111206    35.977289          120    2201.4797    1530.2387    -48429.12   -1351.9216    3752.3207   -3279.9384    72.111205    62.450136    35.977289   -14899.134   -308605.17 
    3170    1643.4793     162024.7    72.112126    72.112126    35.977748          120    8749.1879    8951.4274   -43522.208   -3471.9883    5053.5469   -1781.9131    72.112126    62.450934    35.977748   -8607.1977    -308638.1 
    3180    1595.4573    162030.92     72.11305     72.11305    35.978209          120    122007.31    119006.29     82491.64    4399.3058    2662.4738    1816.6327     72.11305    62.451734    35.978209    107835.08   -308533.05 
    3190    1682.3795    162037.19    72.113979    72.113979    35.978673          120    70359.259    68149.883    25173.397    3740.0621    2752.8403   -813.40269    72.113979    62.452538    35.978673    54560.846   -308714.46 
    3200    1585.6587    162043.48    72.114912    72.114913    35.979138          120   -24407.827   -25375.162   -83287.814   -2839.9784    4543.3512   -4967.2422    72.114912    62.453346    35.979138   -44356.934   -308505.65 
    3210    1689.2232    162049.78    72.115848    72.115848    35.979605          120    70210.925    66193.371    20767.373    392.30865    3692.2833    1105.2451    72.115848    62.454157    35.979605    52390.557   -308722.55 
    3220    1611.6374    162056.12    72.116787    72.116788    35.980074          120    121878.09    118064.88    78910.185    4820.6255    2552.4807    3691.6605    72.116787    62.454971    35.980074    106284.39   -308554.33 
    3230    1663.5835    162062.48    72.117732    72.117732    35.980545          120    8821.5362    8052.0695   -48290.072    813.34101    3454.9074    -4360.804    72.117732    62.455788    35.980545   -10472.155   -308661.57 
    3240    1652.1338    162068.87    72.118679    72.118679    35.981018          120    2343.0042   -1279.9421   -59664.519   -1971.4004    4386.8282   -4440.6628    72.118679    62.456609    35.981018   -19533.819   -308634.64 
    3250    1619.3904    162075.27    72.119629    72.119629    35.981492          120    118319.43    112045.78    68920.421    2174.6565    3065.1128    3701.4513    72.119629    62.457431    35.981492    99761.876   -308561.51 
    3260    1696.2823    162081.71    72.120583    72.120584    35.981968          120    77791.564    76558.709     26877.79    2749.3972    2533.8112    881.58672    72.120583    62.458258    35.981968    60409.354   -308722.02 
    3270    1582.7972    162088.17    72.121541    72.121542    35.982446          120   -24913.809   -24786.191   -90814.682   -1409.5462    4234.1257   -6438.2782    72.121541    62.459087    35.982446   -46838.227   -308478.77 
    3280    1701.0633    162094.64    72.122501    72.122502    35.982925          120    62457.793    55659.527   -469.38818    -937.3267    4084.7625   -1484.8012    72.122501    62.459919    35.982925    39215.977   -308727.05 
    3290    1595.3209    162101.14    72.123465    72.123466    35.983406          120    124521.74    119758.76    73101.725    2072.5446    2629.7015    3324.9102    72.123465    62.460753    35.983406    105794.08   -308499.24 
    3300    1668.8551    162107.66    72.124433    72.124433    35.983888          120    14666.967    16934.367   -45307.036    252.67787    3261.4818   -1840.0215    72.124433    62.461592    35.983888   -4568.5675   -308653.41 
    3310    1631.1596    162114.21    72.125403    72.125404    35.984372          120   -5083.2582   -8709.1954   -77405.271   -2185.4559    4401.4466   -4572.5908    72.125403    62.462432    35.984372   -30399.242   -308569.94 
    3320    1629.1057    162120.76    72.126376    72.126376    35.984858          120    114270.77    106200.47    53134.495    360.16314    3532.1676    860.94629    72.126376    62.463274    35.984858    91201.912    -308562.3 
    3330     1678.783    162127.35    72.127352    72.127352    35.985345          120    85103.306    84544.224    28487.648    1255.2887    3306.4387    2003.6877    72.127352     62.46412    35.985345    66045.059   -308665.01 
    3340    1591.9694    162133.96    72.128332    72.128332    35.985834          120   -25290.119   -24223.754   -96120.144    -1211.062    3972.5937   -1620.6075    72.128332    62.464968    35.985834   -48544.673   -308477.25 
    3350    1706.3883    162140.57    72.129313    72.129314    35.986323          120    52919.087    45516.259   -19395.898   -822.33506    4030.4729   -1330.3766    72.129313    62.465818    35.986323    26346.483    -308717.6 
    3360    1585.8589    162147.21    72.130297    72.130298    35.986814          120    126070.24    121785.11    65698.951     724.8921    4230.9587    1258.7195    72.130297     62.46667    35.986814     104518.1   -308458.57 
    3370    1695.8753    162153.87    72.131285    72.131286    35.987307          120    22937.597    24714.963   -43467.026    314.57396    4065.9691    1675.6706    72.131285    62.467526    35.987307     1395.178   -308689.22 
    3380    1614.6418    162160.55    72.132275    72.132276    35.987801          120   -12044.785   -15848.744   -89527.609   -324.35683    3244.1056    267.15595    72.132275    62.468384    35.987801   -39140.379   -308513.79 
    3390    1652.7072    162167.24    72.133267    72.133268    35.988296          120    107122.22    101354.29    39345.551    -191.3379    4442.8123   -252.85587    72.133267    62.469242    35.988296    82607.353   -308591.38 
    3400    1670.6968    162173.95    72.134262    72.134263    35.988793          120    92861.075    92514.239    28243.613    233.06721    4855.6278    926.39635    72.134262    62.470104    35.988793    71206.309   -308625.86 
    3410    1608.6393    162180.69    72.135261    72.135261    35.989291          120   -20253.422   -22181.196   -97447.282    400.62733    2406.5608    2233.5361    72.135261    62.470969    35.989291     -46627.3   -308491.55 
    3420    1701.5567    162187.43    72.136261    72.136261    35.989789          120    42140.873    35103.796   -34034.957   -54.285129    2722.8491    660.26913    72.136261    62.471835    35.989789    14403.237   -308685.54 
    3430    1600.3946    162194.19    72.137263    72.137263    35.990289          120    125681.77     123595.3    60581.795    -392.9352    5199.4634   -971.30426    72.137263    62.472703    35.990289    103286.29    -308467.3 
    3440    1701.9636    162200.97    72.138268    72.138269    35.990791          120    34792.213     33212.37   -38675.808    -71.14076    3781.0025    1250.7836    72.138268    62.473573    35.990791    9776.2584   -308680.72 
    3450    1612.8318    162207.77    72.139276    72.139277    35.991294          120    -15276.75   -23452.479   -98170.573    492.39733    709.39134    2819.8256    72.139276    62.474446    35.991294   -45633.267   -308488.65 
    3460    1676.3232    162214.58    72.140285    72.140286    35.991797          120    98293.994    94067.796    29205.579    78.534761     3078.875   -552.66166    72.140285     62.47532    35.991797    73855.789   -308620.29 
    3470     1654.448     162221.4    72.141297    72.141298    35.992302          120    99506.885    100312.16     33536.81   -402.86507    5023.3784   -1267.4142    72.141297    62.476197    35.992302    77785.285   -308571.35 
    3480    1629.1097    162228.25    72.142312    72.142313    35.992809          120   -13030.852   -19500.749   -96694.895   -101.94434    2025.4404    3355.8783    72.142312    62.477076    35.992809   -43075.499   -308514.96 
    3490    1694.5801    162235.11    72.143329    72.143329    35.993316          120    32158.483    24406.331   -45991.222    1127.2041     436.5852    2903.5691    72.143329    62.477956    35.993316    3524.5311   -308651.18 
    3500    1601.5692    162241.98    72.144347    72.144348    35.993824          120    121801.47    124483.65    61944.444    1256.5665    3141.4324   -2829.4656    72.144347    62.478838    35.993824    102743.19   -308450.91 
    3510    1705.4779    162248.87    72.145369    72.145369    35.994334          120    43437.178    42841.083   -29965.536   -803.78174    3905.7067    392.54878    72.145369    62.479723    35.994334    18770.908   -308668.57 
    3520    1610.3988    162255.78    72.146393    72.146393    35.994844          120   -17482.352    -26531.37   -104697.14    -75.57426    873.29491    6634.2088    72.146393     62.48061    35.994844   -49570.289   -308464.24 
    3530    1676.7174     162262.7    72.147418    72.147418    35.995356          120     87530.29    87377.811    23437.934    3441.8374    597.65127   -303.95019    72.147418    62.481497    35.995356    66115.345   -308602.33 
    3540    1652.5026    162269.63    72.148446    72.148446    35.995869          120     102930.2    106983.87    43767.803    1671.5041    3127.2061    -4343.588    72.148446    62.482387    35.995869    84560.623   -308547.41 
    3550    1632.9196    162276.59    72.149477    72.149477    35.996383          120   -6999.0145   -12131.774   -91451.239   -2560.3862    2383.5917     5120.196    72.149477     62.48328    35.996383   -36860.676   -308503.42 
    3560    1684.4133    162283.56    72.150509     72.15051    35.996898          120    22896.975    18137.586   -54970.605    1771.8477   -283.23178    5394.5784    72.150509    62.484174    35.996898   -4645.3481   -308610.08 
    3570     1607.145    162290.53    72.151543    72.151544    35.997414          120    119367.28    121906.75    64259.581     5393.018    1609.7156   -5176.3444    72.151543     62.48507    35.997414    101844.54    -308442.1 
    3580    1704.1661    162297.54    72.152581    72.152581    35.997932          120    53105.181    53128.735   -16210.902   -744.15078    2827.9068   -1354.2423    72.152581    62.485969    35.997932    30007.671   -308645.67 
    3590    1601.8099    162304.55    72.153621    72.153621    35.998451          120    -19804.52   -24927.124   -107156.46   -2990.2127    235.65021    7030.7256    72.153621    62.486869    35.998451    -50629.37   -308425.52 
    3600    1695.0638    162311.58    72.154662    72.154663     35.99897          120    81629.023     78256.23    15868.195    4928.2363    564.57989   -1276.6088    72.154662    62.487771     35.99897    58584.483   -308619.93 
    3610    1641.6513    162318.63    72.155706    72.155706    35.999491          120    111079.46    110143.19    54049.491    4716.8954    2820.3176   -5538.9414    72.155706    62.488675    35.999491     91757.38    -308503.5 
    3620    1652.9084    162325.69    72.156753    72.156754    36.000013          120   -1023.6695   -3394.1986   -81572.845    -3515.044    1491.2662    2751.3242    72.156753    62.489582    36.000013   -28663.571   -308524.43 
    3630    1692.3302    162332.77    72.157802    72.157803    36.000537          120    16540.427    10928.044   -63968.281    222.47558    377.16123    2721.0249    72.157802     62.49049    36.000537   -12166.603   -308605.13 
    3640    1616.0807    162339.86    72.158853    72.158853    36.001061          120    122661.36    116242.57    63428.737    6973.7318    2323.4154   -4647.7993    72.158853      62.4914    36.001061    100777.56    -308440.2 
    3650    1723.0487    162346.98    72.159907    72.159907    36.001587          120    64606.992    61827.886   -1921.1006    1360.4713    2028.0518   -1896.6003    72.159907    62.492313    36.001587    41504.593   -308664.37 
    3660    1606.4629    162354.11    72.160963    72.160964    36.002114          120   -21871.443   -24170.803    -104754.3   -3157.6547    923.39405    3509.4903    72.160963    62.493228    36.002114   -50265.516   -308413.89 
    3670    1715.1044    162361.25    72.162021    72.162022    36.002642          120    77760.041    69432.112    8300.5484    4171.5492    2453.9565   -981.23296    72.162021    62.494144    36.002642    51830.901   -308641.83 
    3680    1636.4203    162368.41    72.163082    72.163083    36.003171          120    120342.81    113612.58    59727.561    5632.3842    2107.3884   -3335.4088    72.163082    62.495063    36.003171    97894.318   -308471.12 
    3690    1680.9173    162375.59    72.164146    72.164147    36.003702          120    6319.5991     5395.065   -68673.462   -1888.7644    882.23175    1557.2857    72.164146    62.495985    36.003702   -18986.266   -308563.26 
    3700    1675.2241    162382.79    72.165212    72.165213    36.004234          120    8299.4377    3703.6616   -67705.619    -508.6893    2776.2918    2627.4196    72.165212    62.496908    36.004234   -18567.507   -308548.88 
    3710     1636.945       162390     72.16628    72.166281    36.004767          120    120918.87    113786.24    60605.597     6238.477     2941.519   -1640.1916     72.16628    62.497833    36.004767    98436.903   -308464.24 
    3720    1713.8442    162397.23    72.167352    72.167352    36.005301          120    75124.204    72451.342    9762.4738    2820.3776     1293.924   -419.01456    72.167352     62.49876    36.005301    52446.007   -308625.25 
    3730    1599.3816    162404.48    72.168426    72.168426    36.005837          120   -21783.837   -24213.771   -99649.054   -3018.4391    1869.4262    3527.9039    72.168426    62.499691    36.005837   -48548.888   -308380.25 
    3740    1718.2338    162411.74    72.169501    72.169502    36.006374          120    65798.486    61923.817    2186.3028    2578.0829    3382.3419    1068.7485    72.169501    62.500622    36.006374    43302.869   -308629.47 
    3750    1611.7248    162419.02     72.17058     72.17058    36.006912          120    121548.92    120816.37    66223.193    6674.0861    2856.6743   -649.65845     72.17058    62.501556    36.006912    102862.83   -308400.24 
    3760    1685.5671    162426.33    72.171662    72.171662    36.007452          120     15698.71    13376.482   -56254.451   -237.83682    1714.4844     2386.183    72.171662    62.502493    36.007452   -9059.7527   -308554.94 
    3770    1652.1392    162433.65    72.172746    72.172746    36.007992          120     143.8591   -4462.4671   -71963.602   -2676.8495    2270.9999    2669.2464    72.172746    62.503432    36.007992   -25427.403   -308480.61 
    3780    1649.1348    162440.98    72.173831    72.173832    36.008534          120    112151.22    113989.17    60026.067     5235.035    3777.9865    146.47798    72.173831    62.504372    36.008534    95388.819    -308471.3 
    3790    1701.4038    162448.33     72.17492    72.174921    36.009077          120    81245.127    83111.776    23197.349    4741.2218    3428.4485    1061.0539     72.17492    62.505315    36.009077    62518.084   -308579.04 
    3800    1626.5856    162455.71    72.176013    72.176013    36.009622          120   -19185.399   -24745.891    -94900.34   -3644.7056    1484.4328    2763.7884    72.176013    62.506261    36.009622    -46277.21   -308416.64 
    3810    1730.0819    162463.09    72.177106    72.177107    36.010168          120    55427.235    53786.281   -4425.8875   -603.47867    2415.7214    693.90646    72.177106    62.507208    36.010168    34929.209   -308633.44 
    3820    1637.0447    162470.49    72.178202    72.178203    36.010715          120    121078.63    125228.45    73353.401      5604.99    4613.9945    252.45823    72.178202    62.508158    36.010715    106553.49    -308432.2 
    3830    1724.6455    162477.92    72.179302    72.179303    36.011264          120    22859.383     21535.75   -43251.781    314.91933    2342.2262     1832.755    72.179302     62.50911    36.011264    381.11701   -308615.21 
    3840    1666.2665    162485.36    72.180404    72.180405    36.011813          120   -5498.3449   -10479.503   -74996.571   -4295.0281   -71.984174      1136.86    72.180404    62.510065    36.011813   -30324.807   -308488.96 
    3850    1684.3014    162492.82    72.181508    72.181509    36.012364          120    106713.11    107223.31    57928.575    1778.0192    3603.9996     263.4032    72.181508     62.51102    36.012364    90621.664    -308524.2 
    3860    1710.9337     162500.3    72.182615    72.182616    36.012916          120     88823.14    89697.116    36893.997    3129.0517    3939.9613    957.23385    72.182615    62.511979    36.012916    71804.751   -308577.98 
    3870    1638.5818    162507.79    72.183726    72.183726     36.01347          120   -17338.206   -21202.802   -87127.278   -1671.7045    -39.70184    1431.7497    72.183726    62.512941     36.01347   -41889.429   -308422.61 
    3880    1729.1945     162515.3    72.184838    72.184838    36.014025          120    46570.722    43387.705   -12045.766   -1552.0119    1466.9381    977.66634    72.184838    62.513904    36.014025    25970.887   -308612.19 
    3890    1633.4796    162522.83    72.185952    72.185952    36.014581          120    124142.61     122896.2    79465.329    1498.9218    4275.0739    606.88599    72.185952    62.514869    36.014581    108834.71   -308405.84 
    3900    1714.7674    162530.38     72.18707    72.187071    36.015139          120    31855.022    29280.034   -28210.792    1735.2121     2170.992    1008.0482     72.18707    62.515837    36.015139    10974.755   -308576.21 
    3910    1651.4424    162537.95     72.18819    72.188191    36.015698          120   -10949.244   -15155.083   -79600.342   -239.83678     729.2607    1924.0028     72.18819    62.516807    36.015698   -35234.889   -308439.31 
    3920    1680.8738    162545.53    72.189312    72.189313    36.016258          120    101616.47    98189.724    53349.773   -983.85034    3397.6241    782.83673    72.189312    62.517779    36.016258    84385.322   -308499.08 
    3930    1690.0242    162553.13    72.190438    72.190438    36.016819          120    97644.085    94703.003    49525.455    918.74615    3857.0889    162.55315    72.190438    62.518753    36.016819    80624.181   -308515.93 
    3940    1636.9832    162560.75    72.191566    72.191567    36.017382          120   -13549.593   -17176.086   -82988.165    2568.0189    1014.4344    2018.2746    72.191566    62.519731    36.017382   -37904.615    -308400.9 
    3950    1721.9018    162568.39    72.192696    72.192697    36.017946          120    38383.927     34530.07   -22064.797   -322.33823    1809.2041    1885.2541    72.192696    62.520709    36.017946    16949.733   -308579.22 
    3960    1618.5728    162576.04    72.193829    72.193829    36.018511          120    125520.82    121607.53    81738.687    -1138.771    4209.8061   -298.19679    72.193829     62.52169    36.018511    109622.35   -308356.49 
    3970    1728.3772    162583.71    72.194965    72.194965    36.019078          120    41561.254    38640.357   -18019.026    2234.4791     1841.502    979.69265    72.194965    62.522674    36.019078    20727.528   -308586.56 
    3980    1637.4118     162591.4    72.196103    72.196104    36.019646          120    -14844.81     -18165.8   -85444.653    2175.9591   -374.22716    3021.7989    72.196103     62.52366    36.019646   -39485.088   -308391.05 
    3990    1698.4897    162599.11    72.197243    72.197243    36.020214          120    95199.492    90722.066     45358.61   -1298.1305    3314.7708    116.96512    72.197243    62.524647    36.020214    77093.389   -308517.44 
    4000    1692.4128    162606.83    72.198386    72.198386    36.020785          120    104091.83    101136.27    55484.991     250.1923     3891.589   -233.91408    72.198386    62.525637    36.020785    86904.365   -308500.78 
    4010    1657.0406    162614.57    72.199532    72.199532    36.021356          120   -10033.564   -11535.387   -78623.371    2856.5054    -811.9047    2893.4276    72.199532    62.526629    36.021356   -33397.441   -308423.14 
    4020    1731.9501    162622.33    72.200679     72.20068    36.021929          120    28566.989    24229.212   -32657.135   -278.76804    1088.6351    1381.3716    72.200679    62.527623    36.021929    6713.0221   -308579.25 
    4030    1639.1971    162630.09    72.201829    72.201829    36.022502          120    123831.35    119806.99    78420.997   -854.35914    5491.8924   -972.07361    72.201829    62.528619    36.022502    107353.11   -308378.67 
    4040    1746.7887    162637.88    72.202982    72.202982    36.023077          120    49098.404      48434.5   -8725.6956    1808.1415    1657.8933    1173.6477    72.202982    62.529617    36.023077    29602.403   -308604.82 
    4050    1638.0127    162645.69    72.204137    72.204137    36.023654          120   -20002.091    -23270.59   -89011.346    999.87183   -799.37977    2273.3079    72.204137    62.530617    36.023654   -44094.676   -308370.93 
    4060    1730.2717     162653.5    72.205293    72.205293    36.024231          120    86653.637    81890.105    35339.241   -976.02195    5086.9947   -480.29901    72.205293    62.531619    36.024231    67960.994   -308564.15 
    4070    1672.6057    162661.33    72.206452    72.206452    36.024809          120    108106.38    107327.33    60513.087    672.92207    5231.4687   -1020.2269    72.206452    62.532622    36.024809    91982.267   -308438.99 
    4080    1682.2605    162669.19    72.207614    72.207614    36.025389          120   -5173.8881   -6702.5965   -72843.411    1613.1091    95.025288    1442.1617    72.207614    62.533629    36.025389   -28239.965    -308456.8 
    4090    1716.8921    162677.05    72.208777    72.208778    36.025969          120    19543.744    14354.954   -43954.588   -189.52008    2673.1894    1307.3305    72.208777    62.534636    36.025969   -3351.9633   -308527.92 
    4100    1640.6376    162684.92    72.209942    72.209943     36.02655          120    120242.61     118848.6    75776.307    278.86065    6761.5413   -839.17258    72.209942    62.535645     36.02655    104955.84   -308363.14 
    4110    1743.2932    162692.82     72.21111    72.211111    36.027133          120    57190.292    57452.654   -374.07901     1269.887    3527.8183   -212.96935     72.21111    62.536656    36.027133    38089.622   -308578.24 
    4120    1632.0528    162700.73     72.21228    72.212281    36.027717          120    -21088.06   -24992.678   -94176.234    445.94322     886.3908    1935.5166     72.21228     62.53767    36.027717   -46752.324   -308339.61 
    4130    1732.7742    162708.64    72.213451    72.213452    36.028301          120    76813.715    74216.963    24245.539    15.033324    4600.6773    1271.3242    72.213451    62.538684    36.028301    58425.406   -308551.06 
    4140    1668.4396    162716.57    72.214625    72.214625    36.028886          120    111405.78    111186.11    64012.854    801.35091    5960.8371   -204.20642    72.214625      62.5397    36.028886    95534.916    -308410.7 
    4150    1703.2871    162724.52    72.215801    72.215801    36.029473          120    1658.8156    287.48885   -69114.458    722.94512     2278.611    254.76182    72.215801    62.540719    36.029473   -22389.384   -308482.28 
    4160    1709.1981    162732.48    72.216978    72.216979    36.030061          120    9968.2749    6956.8631   -57533.295    7.0994104     1735.714    1967.3234    72.216978    62.541738    36.030061   -13536.052   -308492.04 
    4170     1675.721    162740.45    72.218157    72.218157    36.030649          120    116692.27    113818.43    69014.756   -106.97622    4778.2247    1201.3212    72.218157    62.542759    36.030649    99841.819   -308417.19 
    4180    1748.1159    162748.44    72.219338    72.219339    36.031238          120    65974.803    64811.634    6670.0252    424.57593    4534.4007   -731.15234    72.219338    62.543782    36.031238    45818.821    -308568.2 
    4190    1655.0458    162756.44    72.220521    72.220522    36.031828          120   -22796.859   -25553.221   -98820.069    864.95667    2463.6017    37.436875    72.220521    62.544807    36.031828   -49056.716   -308367.82 
    4200    1757.6697    162764.44    72.221705    72.221706    36.032419          120    68885.505    62704.414    9025.3144   -413.06467     2596.998    1321.4728    72.221705    62.545832    36.032419    46871.744   -308582.28 
    4210    1678.5229    162772.46    72.222891    72.222891     36.03301          120    116472.33    113535.48    65341.815   -868.96659    4135.1406    252.78306    72.222891    62.546859     36.03301    98449.876   -308411.39 
    4220    1729.8435    162780.49    72.224079    72.224079    36.033603          120    8194.8597    5907.8345   -63335.159    1078.0079    5088.7622    -996.0826    72.224079    62.547888    36.033603   -16410.821    -308517.4 
    4230    1722.7921    162788.53    72.225268    72.225268    36.034196          120     4460.436   -3971.0174   -70505.163    967.75068    3521.8348   -60.210952    72.225268    62.548917    36.034196   -23338.581   -308499.46 
    4240    1692.9811    162796.57    72.226458    72.226458     36.03479          120    114251.61    108609.73    60314.034      -1233.1    2125.9079     274.5954    72.226458    62.549948     36.03479    94391.792   -308433.35 
    4250    1760.5115    162804.64     72.22765     72.22765    36.035385          120     73914.61    72462.902    13558.659   -352.86409    4724.4952    -330.9771     72.22765     62.55098    36.035385    53312.057   -308573.73 
    4260    1669.1618    162812.71    72.228844    72.228844    36.035981          120   -20767.754   -28135.767   -102376.65    2586.2582    6731.4559    7.0814925    72.228844    62.552014    36.035981   -50426.724    -308377.3 
    4270    1762.6093    162820.79    72.230038    72.230039    36.036576          120    61215.906    53246.959   -5414.0464    248.30346    2431.5392   -233.90097    72.230038    62.553048    36.036576    36349.606   -308573.77 
    4280    1676.6539    162828.87    72.231234    72.231234    36.037173          120    118131.64    116708.59    65256.401   -2238.2253    1843.9586   -625.96787    72.231234    62.554084    36.037173    100032.21   -308388.05 
    4290    1735.2422    162836.97    72.232432    72.232432     36.03777          120    16300.972    12620.309   -57547.039    1693.8305    7090.7134    1701.8511    72.232432    62.555121     36.03777   -9541.9196   -308510.13 
    4300    1699.7445    162845.08     72.23363    72.233631    36.038369          120   -1817.4373   -9171.9587   -81833.681    2630.9034    5384.3948    2079.5892     72.23363    62.556159    36.038369   -30941.026   -308432.95 
    4310    1690.8481    162853.19    72.234829     72.23483    36.038967          120    107903.26    105352.68    50402.552   -2095.0713     157.4633   -1298.9305    72.234829    62.557198    36.038967    87886.166   -308411.28 
    4320    1740.8571    162861.31     72.23603    72.236031    36.039566          120    80951.535    81104.993    21085.198   -1472.5007     3935.295    848.13854     72.23603    62.558238    36.039566    61047.242   -308515.19 
    4330    1647.6338    162869.45    72.237233    72.237234    36.040166          120   -20784.569    -24300.86   -102266.25    3381.8578    7586.4062    5467.5567    72.237233     62.55928    36.040166   -49117.226   -308315.41 
    4340    1757.2103    162877.58    72.238436    72.238436    36.040766          120    50726.737    47482.392   -20711.011    265.53315    1442.3883    1132.7766    72.238436    62.560321    36.040766    25832.706   -308545.33 
    4350    1649.3229    162885.73     72.23964     72.23964    36.041367          120    118502.98    120745.17    64257.076    -2969.848    291.89581     -2060.85     72.23964    62.561364    36.041367    101168.41   -308313.58 
    4360    1737.7391    162893.89    72.240846    72.240846    36.041968          120    22050.109    23388.936   -47582.992    1345.4176    6458.7324    4455.7357    72.240846    62.562408    36.041968   -714.64909   -308498.83 
    4370    1680.1623    162902.05    72.242053    72.242053    36.042571          120    -10125.92   -12474.614   -91606.879    2208.0358    5583.0327    5834.0841    72.242053    62.563453    36.042571   -38069.138   -308373.41 
    4380    1702.8638    162910.21    72.243259     72.24326    36.043173          120    100725.09    103083.95    40664.052   -1570.8583   -628.61749   -1952.4404    72.243259    62.564498    36.043173     81491.03   -308418.57 
    4390     1729.741    162918.39    72.244468    72.244468    36.043776          120    85923.907    90867.671    29096.121   -305.09495    2165.3704   -241.26274    72.244468    62.565545    36.043776    68629.233   -308472.74 
    4400    1669.7594    162926.58    72.245678    72.245679    36.044379          120    -20643.22   -20138.016   -99946.567    1878.9283    8462.9795    6846.2801    72.245678    62.566593    36.044379   -46909.268   -308342.59 
    4410    1765.5263    162934.76    72.246888    72.246889    36.044983          120    39013.819    40743.447   -33058.347   -368.26463    3277.5983    1719.9766    72.246888    62.567641    36.044983    15566.306   -308543.55 
    4420    1660.5532    162942.95    72.248099    72.248099    36.045587          120    117384.82       122210    63903.088    -43.53114   -1292.4244   -2701.7667    72.248099     62.56869    36.045587    101165.97    -308317.1 
    4430    1769.9294    162951.16    72.249312    72.249312    36.046192          120    29384.902    32025.051   -38697.787      1158.66    5697.5957    3219.1029    72.249312     62.56974    36.046192    7570.7223    -308546.8 
    4440     1675.727    162959.37    72.250525    72.250525    36.046797          120   -18001.151   -15821.121   -98482.564   -663.13633    8872.8348    4132.7699    72.250525    62.570791    36.046797   -44101.612   -308344.91 
    4450    1734.9543    162967.58    72.251738    72.251738    36.047403          120     92643.48    95793.467    32215.121     53.20829   -20.147917   -1593.0812    72.251738    62.571841    36.047403     73550.69   -308467.63 
    4460    1723.1379     162975.8    72.252952    72.252953    36.048009          120     93289.36    95218.247    35409.593    1489.3076    688.26179      99.9085    72.252952    62.572893    36.048009    74639.067    -308439.5 
    4470    1685.5336    162984.02    72.254168    72.254169    36.048615          120   -18540.084   -15687.154   -95167.154   -448.50714    9629.1895    4211.4442    72.254168    62.573946    36.048615   -43131.464   -308358.11 
    4480    1753.8484    162992.25    72.255384    72.255384    36.049222          120     27358.26    30928.898   -44229.678   -606.84437     4842.205    534.84455    72.255384    62.574999    36.049222    4685.8265   -308500.86 
    4490    1665.0122    163000.48      72.2566      72.2566    36.049828          120    118886.46    119603.78    62413.503    2183.9411   -724.22484   -949.98345      72.2566    62.576052    36.049828    100301.25   -308309.32 
    4500    1758.4056    163008.72    72.257818    72.257818    36.050436          120    37254.329    40040.862   -27436.484    1028.0393    5586.9032     3383.551    72.257818    62.577106    36.050436    16619.569   -308505.59 
    4510    1667.7447    163016.96    72.259036    72.259036    36.051044          120   -25878.349   -19645.709   -100952.85   -1153.1865    7760.8958    3213.2122    72.259036    62.578161    36.051044   -48825.637    -308310.4 
    4520    1741.5132    163025.21    72.260253    72.260254    36.051651          120    86335.539    87755.491    22178.351    1757.8689    2196.1987   -764.52094    72.260253    62.579216    36.051651    65423.127    -308464.6 
    4530     1705.347    163033.46    72.261472    72.261473    36.052259          120    99888.078    101262.68    41842.056    2606.5738    3073.8081    615.92554    72.261472    62.580271    36.052259    80997.606   -308385.08 
    4540    1706.1631    163041.71    72.262693    72.262693    36.052868          120   -18145.577   -11251.826   -85986.838    -371.3785    6892.4869    4658.7442    72.262693    62.581328    36.052868   -38461.414   -308383.94 
    4550    1750.8607    163049.97    72.263912    72.263913    36.053477          120    17633.813    21802.318   -53727.983    162.35961    4913.3478    2066.2802    72.263912    62.582384    36.053477   -4763.9503   -308476.29 
    4560    1680.6549    163058.23    72.265132    72.265133    36.054085          120    118661.65    119848.32    58012.391    2589.7061    3215.4079   -1951.1452    72.265132    62.583441    36.054085    98840.786   -308324.22 
    4570    1777.0874     163066.5    72.266354    72.266354    36.054695          120    44173.679     48446.07   -16413.542    1127.5309    5219.1675    1673.2533    72.266354    62.584499    36.054695    25402.069   -308525.83 
    4580     1681.242    163074.77    72.267576    72.267576    36.055304          120   -29093.857   -24542.993   -100106.71   -545.32045    5636.3582     5537.035    72.267576    62.585557    36.055304   -51247.852   -308320.11 
    4590      1759.46    163083.04    72.268797    72.268797    36.055914          120    77833.999    80850.218    12026.262    1397.7692    3809.1491   -258.82042    72.268797    62.586615    36.055914    56903.493   -308483.56 
    4600    1719.3261    163091.31    72.270019     72.27002    36.056523          120    104152.26    107918.17    47437.544    1508.4719    4029.6103   -2540.1882    72.270019    62.587673    36.056523     86502.66    -308395.2 
    4610    1720.0622    163099.59    72.271243    72.271243    36.057134          120   -10161.151   -7919.9115   -76365.434   -228.66847    6125.5447    3058.2376    72.271243    62.588733    36.057134   -31482.166   -308394.66 
    4620    1752.8186    163107.88    72.272466    72.272466    36.057744          120    9983.9761    11984.477   -61029.861     1003.001    5322.7703    3036.6933    72.272466    62.589792    36.057744   -13020.469   -308461.46 
    4630    1694.6896    163116.16    72.273689    72.273689    36.058354          120    113322.66     118421.5    57816.449    1614.7865    3020.5574   -2169.3809    72.273689    62.590851    36.058354    96520.202   -308334.95 
    4640    1779.4194    163124.45    72.274913    72.274914    36.058965          120    54852.416    57169.092   -3165.7995    174.89806    5326.6836   -1840.4454    72.274913    62.591911    36.058965    36285.236   -308513.04 
    4650    1682.2642    163132.74    72.276138    72.276139    36.059576          120   -26138.004   -28848.157   -100752.95     961.5622    7655.9989    1685.7624    72.276138    62.592972    36.059576   -51913.038   -308304.26 
    4660    1780.3701    163141.03    72.277363    72.277363    36.060187          120    68127.728    71104.143    6953.7439    2398.6017    3170.3069    1257.7248    72.277363    62.594033    36.060187    48728.538   -308509.76 
    4670    1710.1168    163149.33    72.278588    72.278588    36.060798          120    107151.17    112586.05    58390.639    1049.7338     2986.432   -1226.1915    72.278588    62.595094    36.060798    92709.287   -308358.03 
    4680    1745.5541    163157.64    72.279814    72.279815     36.06141          120    1325.5427   -2429.1951   -67938.808    642.77214    7482.9597   -1578.4623    72.279814    62.596156     36.06141   -23014.154   -308430.38 
    4690    1755.0671    163165.94    72.281041    72.281041    36.062022          120    5065.1267    1884.7869   -67301.606     2680.303    5328.5652    1455.8713    72.281041    62.597218    36.062022   -20117.231   -308448.29 
    4700    1703.1153    163174.24    72.282267    72.282267    36.062634          120    108246.54    114834.44     61080.97    2522.8381    1250.3286    2331.9477    72.282267     62.59828    36.062634    94720.648   -308335.32 
    4710    1790.0305    163182.56    72.283495    72.283495    36.063247          120    65040.409    66504.698    10056.038    1202.1401    4014.4596   -500.15657    72.283495    62.599343    36.063247    47200.382   -308517.21 
    4720    1679.6533    163190.88    72.284723    72.284724    36.063859          120   -22781.043   -28769.115   -99829.104    2032.5056    7286.4242   -796.79966    72.284723    62.600407    36.063859   -50459.754   -308280.94 
    4730    1786.2683    163199.19    72.285951    72.285951    36.064472          120    59744.847    62954.207    2896.6921    3357.7925    2937.1405    2747.2366    72.285951     62.60147    36.064472    41865.249   -308505.13 
    4740    1698.0918    163207.52    72.287179     72.28718    36.065085          120    110151.72    116837.71    66588.859    2634.9128    520.95537    1928.8036    72.287179    62.602534    36.065085    97859.432   -308314.64 
    4750    1759.7127    163215.85     72.28841     72.28841    36.065699          120    10641.611     7641.869   -56802.719    1961.5095    5519.2872   -533.26936     72.28841      62.6036    36.065699   -12839.746   -308443.43 
    4760    1731.1813    163224.18     72.28964    72.289641    36.066313          120   -1231.9666   -4012.9517   -71448.618    2873.2579    7932.4348    785.43034     72.28964    62.604665    36.066313   -25564.512    -308380.6 
    4770    1724.7751    163232.51     72.29087    72.290871    36.066926          120     104081.4    110995.39    59937.066    3391.6281    957.85688    1920.7882     72.29087    62.605731    36.066926    91671.285   -308363.84 
    4780    1777.4596    163240.86    72.292102    72.292102    36.067541          120    73867.641    76344.354    22687.724    2895.2693    1131.6963    926.08484    72.292102    62.606797    36.067541    57633.239   -308473.41 
    4790    1689.8587    163249.21    72.293334    72.293335    36.068156          120   -20743.014   -27197.659   -94187.777    2702.9532    10037.512    233.86081    72.293334    62.607864    36.068156    -47376.15   -308285.02 
    4800    1801.1692    163257.55    72.294566    72.294567     36.06877          120    51498.216    52981.612   -4208.9269    2958.1795    6700.4484    680.13595    72.294566    62.608931     36.06877    33423.634   -308518.49 
    4810    1697.0354     163265.9    72.295799    72.295799    36.069385          120    113634.92    119843.52    72107.131    2829.3172   -610.05985    782.18175    72.295799    62.609999    36.069385    101861.86   -308294.66 
    4820    1784.9067    163274.27    72.297033    72.297034    36.070001          120    19855.667    15602.885   -43200.081    2736.5343    6411.7701    893.22513    72.297033    62.611068    36.070001   -2580.5094   -308479.17 
    4830    1729.6434    163282.63    72.298268    72.298268    36.070617          120   -6398.2192   -11727.146   -74958.132    2773.3382    12882.763    699.35849    72.298268    62.612137    36.070617   -31027.832   -308359.06 
    4840    1745.4942       163291    72.299502    72.299503    36.071233          120    101138.86    105904.87    56605.578    1575.5827    3169.0592    452.44989    72.299502    62.613206    36.071233    87883.104   -308390.81 
    4850    1768.1104    163299.37    72.300738    72.300739     36.07185          120    83131.011    84172.211    34500.941     1937.567    1382.1581     1030.906    72.300738    62.614277     36.07185    67268.054   -308436.29 
    4860     1704.928    163307.75    72.301975    72.301976    36.072467          120   -16909.144   -25305.068   -87514.487    3468.4391    11843.849    1232.7325    72.301975    62.615348    36.072467     -43242.9   -308300.27 
    4870     1782.761    163316.13    72.303212    72.303212    36.073084          120    45256.385    43759.275   -12545.017    1152.5801    9885.9395    726.92938    72.303212    62.616419    36.073084    25490.214   -308463.82 
    4880    1691.1368    163324.52    72.304449     72.30445    36.073701          120    117098.34    121967.97    75413.416    31.886528    765.98036     1015.173    72.304449     62.61749    36.073701    104826.58   -308266.64 
    4890    1773.7624    163332.91    72.305688    72.305689    36.074319          120    29640.917     23572.24    -30001.92     3550.742    4982.9437    1764.0431    72.305688    62.618563    36.074319    7737.0788   -308439.99 
    4900    1701.1736    163341.31    72.306928    72.306928    36.074938          120   -8512.9296    -18339.14   -78114.303    2546.4054    12468.277    471.65336    72.306928    62.619637    36.074938   -34988.791   -308284.29 
    4910    1740.2415    163349.71    72.308167    72.308167    36.075556          120    96770.169    100420.58    48453.241   -1257.7734    4669.5085    609.92047    72.308167     62.62071    36.075556     81881.33   -308364.34 
    4920    1744.5248    163358.12    72.309407    72.309408    36.076175          120    90522.296    91682.742    43991.338    1296.5323    -378.2168      2504.22    72.309407    62.621784    36.076175    75398.792   -308371.11 
    4930    1698.3251    163366.53    72.310649    72.310649    36.076794          120   -12163.231   -25891.024   -80198.529    3607.8431    8837.6829    963.24877    72.310649    62.622859    36.076794   -39417.594   -308271.36 
    4940    1776.6956    163374.95     72.31189    72.311891    36.077413          120    37105.675    32861.015   -24983.395   -229.29362    9580.3128   -1074.0781     72.31189    62.623934    36.077413    14994.432   -308434.99 
    4950    1691.9692    163383.36    72.313132    72.313132    36.078033          120     116385.8    123129.75    73470.782   -886.02309   -997.96908     1768.935    72.313132     62.62501    36.078033    104328.78    -308252.2 
    4960    1780.5721    163391.79    72.314375    72.314375    36.078653          120    37403.922    29393.153   -19300.037    2606.4455    2303.0297    2635.0228    72.314375    62.626086    36.078653    15832.346   -308438.09 
    4970    1710.6237    163400.21    72.315618    72.315618    36.079273          120    -13410.42   -26316.057   -84661.145    1617.6039    11349.488   -2101.8822    72.315618    62.627163    36.079273   -41462.541      -308287 
    4980    1759.5105    163408.64     72.31686    72.316861    36.079893          120    88261.533    92581.109    37766.417   -676.54618    3295.9488   -1197.4047     72.31686    62.628239    36.079893    72869.687   -308388.51 
    4990    1751.2934    163417.07    72.318104    72.318104    36.080514          120    95634.119    96620.704    49351.586    774.58767   -1711.8123    2748.5606    72.318104    62.629316    36.080514     80535.47   -308368.66 
    5000    1723.5288     163425.5    72.319348    72.319349    36.081134          120   -8394.3834   -23935.152   -79398.486    2505.9391    7399.4592   -711.05873    72.319348    62.630393    36.081134   -37242.674   -308307.28 
    5010    1788.2252    163433.93    72.320592    72.320592    36.081755          120    27053.463    22639.631   -37383.115    1028.0015    8116.1663   -3869.7982    72.320592     62.63147    36.081755    4103.3262    -308442.8 
    5020    1700.6818    163442.36    72.321835    72.321836    36.082375          120    113148.24    119575.69    71212.776    233.43896     58.95383    361.48447    72.321835    62.632547    36.082375    101312.23    -308253.8 
    5030    1804.6219     163450.8     72.32308     72.32308    36.082996          120    45897.605    36823.146   -13218.165    2084.1618    2446.1801    1130.0339     72.32308    62.633625    36.082996    23167.529   -308471.88 
    5040    1702.3138    163459.24    72.324324    72.324325    36.083617          120   -15791.178   -30170.366   -92775.861    2417.1354    7963.5937   -3711.5892    72.324324    62.634703    36.083617   -46245.802   -308252.92 
    5050    1777.9746    163467.67    72.325568    72.325569    36.084238          120    78888.406    82270.083    28470.995    1011.3482    4042.7759   -2442.3331    72.325568     62.63578    36.084238    63209.828    -308411.1 
    5060    1741.0096    163476.11    72.326812    72.326813    36.084858          120    98368.954    100502.42    55260.544    1360.2779    2005.8164     884.6409    72.326812    62.636857    36.084858    84710.638   -308329.97 
    5070    1728.4462    163484.55    72.328057    72.328057    36.085479          120   -2396.2461   -17436.572    -76687.45    2783.0796    5333.0239   -1194.6856    72.328057    62.637935    36.085479   -32173.423   -308302.02 
    5080    1773.9147    163492.98    72.329301    72.329301      36.0861          120    19693.666     11897.26   -50204.654    1780.7402    5505.1031   -3382.3794    72.329301    62.639012      36.0861   -6204.5758   -308396.49 
    5090    1698.1298    163501.41    72.330544    72.330544     36.08672          120    109209.52    115960.57    69072.991    1194.1625    3415.1952    -514.1657    72.330544    62.640089     36.08672    98081.026   -308233.11 
    5100    1793.2652    163509.85    72.331788    72.331788    36.087341          120    51468.522    47907.099     -2989.48    2815.9226    4286.9664    663.45575    72.331788    62.641166    36.087341    32128.713   -308433.84 
    5110     1686.981    163518.28    72.333032    72.333032    36.087961          120   -17702.055   -33305.476   -98205.115    2588.7151    5495.0497   -2216.9614    72.333032    62.642244    36.087961   -49737.549   -308205.57 
    5120    1788.3257    163526.71    72.334274    72.334275    36.088581          120    72066.635    72124.818    16394.336    1409.1089    3984.1498   -1259.8446    72.334274     62.64332    36.088581    53528.596   -308418.56 
    5130    1714.0318    163535.14    72.335517    72.335518    36.089201          120    99853.174    106340.69    59804.578    2443.6295    3671.4285    1301.1307    72.335517    62.644396    36.089201    88666.146   -308258.49 
    5140    1751.4143    163543.57     72.33676    72.336761    36.089822          120   -819.23349    -10263.99    -69534.72    3701.0854    5517.1721   -422.49675     72.33676    62.645473    36.089822   -26872.648   -308335.73 
    5150    1756.8955       163552    72.338003    72.338003    36.090441          120    10999.324    1981.3844   -62035.095    2334.2419     4099.167   -2345.9202    72.338003    62.646549    36.090441   -16351.462   -308345.21 
    5160    1710.6395    163560.42    72.339244    72.339244    36.091061          120    106761.47    112822.55     62662.63    1776.9124    2935.4977    854.57495    72.339244    62.647624    36.091061    94082.215   -308244.55 
    5170    1796.1971    163568.84    72.340486    72.340486     36.09168          120    56212.183    57430.286    5044.5951    3623.8932    5659.1227    1741.4259    72.340486    62.648699     36.09168    39562.355   -308423.52 
    5180    1696.9024    163577.26    72.341727    72.341728      36.0923          120   -22857.205   -33101.934   -99593.372     3799.514    4091.8198   -1988.9957    72.341727    62.649774      36.0923   -51850.837   -308210.46 
    5190    1802.4947    163585.67    72.342967    72.342967    36.092918          120    63540.854    62024.198    3807.7928    1895.1627    1489.7948   -836.87008    72.342967    62.650848    36.092918    43124.282   -308431.94 
    5200    1730.0481    163594.08    72.344206    72.344207    36.093537          120     104530.4    108165.16    60256.183    2396.9887    5366.2739    2528.2661    72.344206    62.651921    36.093537    90983.915   -308274.66 
    5210    1785.8252    163602.49    72.345446    72.345447    36.094155          120    3300.7836    -2043.607   -63866.227    3516.2619    5901.8754    116.22758    72.345446    62.652995    36.094155   -20869.683   -308390.89 
    5220     1771.502     163610.9    72.346685    72.346685    36.094773          120    1322.6571   -6227.9255   -73615.042    2051.5918   -298.90673   -2432.4797    72.346685    62.654068    36.094773   -26173.437    -308357.6 
    5230    1764.5974    163619.29    72.347922    72.347923     36.09539          120    104920.91    103743.78    54416.345    1531.7435    2689.4065    1372.6624    72.347922    62.655139     36.09539    87693.678   -308339.39 
    5240    1815.6049    163627.68    72.349159     72.34916    36.096008          120    65003.186     62766.72    11189.112    1961.7192    7594.3642    1706.3522    72.349159     62.65621    36.096008    46319.673   -308445.24 
    5250     1738.392    163636.07    72.350396    72.350397    36.096625          120   -24441.759   -33324.084   -103104.04    757.91742    1523.1049    -2295.935    72.350396    62.657282    36.096625   -53623.293   -308279.01 
    5260    1832.0277    163644.45    72.351631    72.351631    36.097241          120    55025.808    48470.635   -10703.164    892.56194   -869.00415   -1002.5466    72.351631    62.658351    36.097241    30931.093   -308475.42 
    5270    1743.2788    163652.83    72.352865    72.352865    36.097856          120    109000.76    107058.98    60528.957    1387.3232    5923.0895    1880.0793    72.352865    62.659419    36.097856    92196.233   -308284.94 
    5280    1806.6416     163661.2    72.354098    72.354099    36.098472          120    10795.115    3108.7165   -58410.269   -484.62119    5346.3604   -288.82528    72.354098    62.660488    36.098472   -14835.479   -308417.45 
    5290    1771.8642    163669.56    72.355331    72.355331    36.099087          120   -5732.7496   -15130.914   -84086.778   -949.51134   -850.60052   -2338.5567    72.355331    62.661555    36.099087    -34983.48   -308341.59 
    5300    1764.3538    163677.91    72.356561    72.356562    36.099701          120    99828.025    97898.122    45658.489     1278.369    2397.7705   -125.13763    72.356561    62.662621    36.099701    81128.212   -308323.65 
    5310    1809.8323    163686.26    72.357792    72.357792    36.100314          120     74352.15    69938.284    16560.349    733.29368    5617.7793    1269.6149    72.357792    62.663686    36.100314    53616.927   -308417.52 
    5320    1733.1758    163694.61    72.359021    72.359022    36.100928          120   -21798.231   -33345.512   -102939.39   -2157.5689    2458.0341   -220.79273    72.359021    62.664751    36.100928   -52694.377   -308252.88 
    5330    1820.9393    163702.94    72.360249    72.360249     36.10154          120    43675.072    41105.252   -21945.632   -530.00627    801.92026    -2364.715    72.360249    62.665814     36.10154    20944.897    -308437.5 
    5340    1735.7984    163711.26    72.361475    72.361476    36.102152          120    109896.84    112121.48    58652.544    1881.6478    3171.2353   -665.81346    72.361475    62.666876    36.102152    93556.955   -308253.84 
    5350    1808.7499    163719.58    72.362702    72.362702    36.102764          120     21445.85    11977.662    -50945.98    196.27622    3962.7029     2416.145    72.362702    62.667938    36.102764   -5840.8226   -308407.07 
    5360    1755.8089     163727.9    72.363926    72.363927    36.103375          120   -11885.098   -20607.268   -89665.272   -2022.8245    2086.7353   -889.22171    72.363926    62.668999    36.103375   -40719.213   -308292.83 
    5370    1778.3235     163736.2    72.365149     72.36515    36.103985          120    90575.465    96513.788    37282.468    530.75571    1956.9821   -3988.2499    72.365149    62.670058    36.103985    74790.574   -308337.81 
    5380    1802.5269     163744.5    72.366372    72.366372    36.104595          120    81148.623    81512.568    23938.001    2728.9943    3520.7341    690.61383    72.366372    62.671117    36.104595    62199.731   -308387.22 
    5390    1737.8001    163752.79    72.367594    72.367594    36.105205          120   -17790.809   -31213.372   -98905.269   -211.28274    2902.8909    2791.3574    72.367594    62.672175    36.105205    -49303.15   -308248.21 
    5400    1832.6577    163761.07    72.368813    72.368814    36.105813          120     33725.04    32968.823   -33044.331   -1631.5891    2298.7229   -3734.2766    72.368813    62.673231    36.105813     11216.51   -308447.48 
    5410    1727.1947    163769.34    72.370032    72.370032    36.106421          120    108349.53    115481.12    60179.904    2614.6027    4479.4444   -3172.6721    72.370032    62.674287    36.106421    94670.186   -308221.72 
    5420     1823.547    163777.61     72.37125    72.371251    36.107029          120    29157.809    22445.881   -39921.825    2867.4322    3488.3838    3071.8335     72.37125    62.675342    36.107029    3893.9551   -308424.81 
    5430    1742.0547    163785.88    72.372467    72.372468    36.107636          120   -15921.935   -25071.914   -97317.941   -2018.7712    1736.1149    96.587354    72.372467    62.676396    36.107636    -46103.93   -308250.18 
    5440    1788.3253    163794.12    72.373682    72.373682    36.108242          120    85432.676    89340.336    31098.671    318.30318    5536.1258   -4741.4361    72.373682    62.677448    36.108242    68623.894   -308346.64 
    5450    1782.3509    163802.37    72.374896    72.374897    36.108848          120    86963.875    88505.011    33743.651    4300.3216    5879.9213   -243.68814    72.374896    62.678499    36.108848    69737.512   -308331.55 
    5460    1749.1023    163810.61     72.37611     72.37611    36.109454          120   -15375.919   -23663.484   -95180.541    524.81916    704.58508    2530.6361     72.37611     62.67955    36.109454   -44739.981   -308258.67 
    5470    1818.2306    163818.84    72.377322    72.377322    36.110058          120    26805.653    24589.473    -43397.09   -2101.4931    3594.9113    -3660.901    72.377322      62.6806    36.110058    2666.0121   -308403.52 
    5480    1732.2976    163827.06    72.378532    72.378532    36.110662          120     110414.9    112938.76    61527.585    2729.1678     8097.841   -3248.4399    72.378532    62.681648    36.110662    94960.415   -308218.13 
    5490    1838.3893    163835.27    72.379742    72.379743    36.111266          120    37154.109    33176.792   -28479.744    2947.5808    2700.5112    1887.9526    72.379742    62.682696    36.111266    13950.386   -308441.58 
    5500      1738.29    163843.48    72.380951    72.380952    36.111869          120   -20935.189   -25328.086   -99922.825   -1274.6343    515.18353    -1089.944    72.380951    62.683743    36.111869     -48728.7   -308227.25 
    5510    1821.2283    163851.68    72.382158    72.382158    36.112471          120    80321.858    81127.408    24142.829    336.27699    6860.0789   -5129.9265    72.382158    62.684788    36.112471    61864.032   -308400.79 
    5520    1780.3775    163859.87    72.383364    72.383365    36.113073          120    95521.522    93527.611    42461.946    1994.1508    5730.2928   -530.84499    72.383364    62.685833    36.113073     77170.36   -308311.66 
    5530    1776.4935    163868.06     72.38457    72.384571    36.113675          120    -11353.99   -15467.759   -84899.235    503.19659    702.17391    1723.3816     72.38457    62.686877    36.113675   -37240.328   -308302.34 
    5540    1815.9061    163876.24    72.385774    72.385775    36.114275          120     16939.63    17020.336   -49814.865    95.331102    3923.3975   -4532.7582    72.385774     62.68792    36.114275   -5284.9664   -308383.78 
    5550    1749.1208    163884.41    72.386977    72.386977    36.114875          120     112072.5    111332.99    63338.859   -180.27749    6207.3503   -4238.5227    72.386977    62.688962    36.114875    95581.448   -308239.83 
    5560    1831.8476    163892.58     72.38818     72.38818    36.115475          120    47151.031    42971.547   -13256.642   -65.297599    2703.2389    2168.9447     72.38818    62.690003    36.115475    25621.979   -308414.13 
    5570    1739.8246    163900.74    72.389381    72.389382    36.116075          120   -24570.613   -26809.584   -96995.996    1063.2499    2015.5804    431.88834    72.389381    62.691044    36.116075   -49458.731    -308216.8 
    5580    1819.2345    163908.89    72.390581    72.390582    36.116674          120    72739.102    73961.865    19334.386   -720.15374    5051.3796   -5684.2647    72.390581    62.692083    36.116674    55345.118   -308383.94 
    5590    1759.7706    163917.04    72.391781    72.391781    36.117272          120    101768.83     99479.62    52670.069   -1418.9933    4129.8465   -1855.3844    72.391781    62.693122    36.117272    84639.507    -308256.1 
    5600    1779.4162    163925.18     72.39298     72.39298     36.11787          120   -4625.5354   -10729.032   -73881.775    852.92131    1526.5373    4040.4211     72.39298     62.69416     36.11787   -29745.448   -308296.37 
    5610    1788.6499    163933.32    72.394177    72.394178    36.118468          120    8726.3726    8276.7875   -55610.811    284.19578    3617.6207   -1616.4991    72.394177    62.695197    36.118468   -12869.217   -308315.01 
    5620    1739.7684    163941.44    72.395373    72.395374    36.119064          120    107923.42     110782.7    62522.908   -1557.1136    5541.9454   -5413.7868    72.395373    62.696233    36.119064    93743.009   -308209.11 
    5630    1815.8378    163949.57    72.396569     72.39657    36.119661          120    55757.766    51530.336   -2578.2731    94.828456    3259.2625    1415.7291    72.396569    62.697269    36.119661    34903.277   -308368.78 
    5640    1723.5198    163957.69    72.397765    72.397765    36.120258          120   -23876.887   -30657.581   -97510.609    770.93411    1737.1753    3531.7221    72.397765    62.698304    36.120258   -50681.692   -308171.46 
    5650    1809.1644     163965.8    72.398958    72.398958    36.120853          120    62200.683    65951.438     9033.757   -805.19336    5399.6591   -3719.7777    72.398958    62.699337    36.120853    45728.626   -308351.11 
    5660    1750.7678     163973.9     72.40015    72.400151    36.121448          120    103197.48    105792.04    55687.515    327.22217    6341.2277   -2864.3131     72.40015     62.70037    36.121448    88225.678   -308225.04 
    5670    1776.7176       163982    72.401343    72.401343    36.122043          120    1966.8759   -4916.8032   -67663.565    949.67877    1503.6628    4334.1426    72.401343    62.701403    36.122043   -23537.831   -308278.64 
    5680    1782.4184    163990.09    72.402533    72.402533    36.122636          120    999.04668   -897.98987   -66634.355   -587.21701    2231.6701    959.23728    72.402533    62.702433    36.122636   -22177.766   -308289.09 
    5690    1747.0552    163998.16    72.403722    72.403722    36.123229          120    102026.54       107681    56160.463    637.59256    7658.1191   -3904.2243    72.403722    62.703463    36.123229    88622.669   -308211.41 
    5700    1812.3702    164006.24     72.40491    72.404911    36.123822          120    61748.647    61388.558    6632.3755    2065.1469    5041.2928    1291.2535     72.40491    62.704492    36.123822    43256.527   -308348.62 
    5710    1723.8834    164014.31    72.406097    72.406098    36.124415          120   -26179.605   -30012.946   -99640.179   -108.92539   -893.55877    3726.8501    72.406097     62.70552    36.124415   -51944.243   -308158.88 
    5720    1821.2079    164022.36    72.407283    72.407283    36.125006          120    53490.407    56114.355   -1692.1794   -513.97068    4914.0483   -2332.7719    72.407283    62.706547    36.125006    35970.861   -308363.47 
    5730    1737.3479    164030.41    72.408467    72.408467    36.125597          120    104867.76    107849.84    61682.084    2097.4047    9215.3053   -1735.9517    72.408467    62.707572    36.125597     91466.56   -308183.22 
    5740    1798.2562    164038.46    72.409651    72.409651    36.126188          120    5388.0462    4667.1846   -57937.288    1886.0904    1248.7003    3046.7293    72.409651    62.708598    36.126188   -15960.686   -308310.36 
    5750    1776.5895    164046.49    72.410833    72.410834    36.126778          120   -6920.4221   -6967.4783   -74328.068   -843.38712   -434.03105   -747.52896    72.410833    62.709622    36.126778   -29405.323   -308262.95 
    5760    1761.0041    164054.51    72.412013    72.412014    36.127366          120    97743.617    99747.341    54921.531    274.97983    8890.9298   -3551.3546    72.412013    62.710644    36.127366    84137.496   -308227.48 
    5770     1824.462    164062.53    72.413193    72.413194    36.127955          120    66867.092     67964.84    20588.476    2597.7547    7225.7962    621.20721    72.413193    62.711666    36.127955    51806.803   -308359.51 
    5780    1735.8359    164070.55    72.414373    72.414373    36.128543          120   -27387.109   -27410.109   -96681.227    1236.7695   -1981.8932    1167.7434    72.414373    62.712687    36.128543   -50492.815   -308169.59 
    5790    1840.7745    164078.55    72.415549     72.41555    36.129131          120    45106.976    45184.908    -10408.52   -492.46281    4029.6123   -3647.2109    72.415549    62.713706    36.129131    26627.788    -308390.2 
    5800    1748.8347    164086.54    72.416725    72.416726    36.129717          120    104945.59    106445.96    68209.743    1124.2813    10785.983    -2711.898    72.416725    62.714724    36.129717    93200.432   -308191.95 
    5810    1829.2496    164094.53    72.417901    72.417901    36.130304          120    11473.725    11846.701   -44930.965    2177.1133    2847.9877    1599.1749    72.417901    62.715742    36.130304   -7203.5132   -308361.58 
    5820    1773.6546    164102.51    72.419074    72.419075    36.130889          120   -12958.493   -14295.929   -82153.189    1156.5553   -488.67082   -703.63699    72.419074    62.716759    36.130889   -36469.203   -308241.61 
    5830    1799.0735    164110.47    72.420246    72.420246    36.131474          120    91537.701    93364.092    48348.256    660.85222    9781.8402   -4024.0988    72.420246    62.717773    36.131474    77750.016   -308293.28 
    5840    1816.5976    164118.44    72.421417    72.421417    36.132058          120    72634.229    74489.884    31298.396    625.28405    9033.0107   -1460.8097    72.421417    62.718787    36.132058     59474.17   -308328.73 
    5850    1758.5814    164126.39    72.422587    72.422588    36.132642          120   -25499.736   -27330.692   -93145.857    1794.8478   -329.61115    1103.8773    72.422587    62.719801    36.132642   -48658.762   -308203.68 
    5860    1848.4225    164134.33    72.423755    72.423755    36.133224          120     35345.53    35449.666    -23924.29    2330.7966    5129.2176    -1575.733    72.423755    62.720812    36.133224    15623.635   -308392.34 
    5870    1750.1172    164142.26    72.424921    72.424922    36.133806          120    105696.39    108734.86    66916.678   -242.18117    12047.462   -3505.3813    72.424921    62.721822    36.133806     93782.64    -308181.8 
    5880    1846.3729    164150.19    72.426087    72.426088    36.134388          120    18411.597    18581.135   -35519.637   -277.39136    4207.4799   -926.01326    72.426087    62.722832    36.134388    491.03177   -308384.41 
    5890    1770.1623     164158.1    72.427251    72.427252    36.134969          120   -20537.393   -22337.637   -87964.006    3022.6778    767.28063    1382.9183    72.427251     62.72384    36.134969   -43613.012   -308220.77 
    5900    1813.9589       164166    72.428413    72.428414    36.135548          120    86159.377    87123.228    37350.063    1142.5147    10093.599   -2208.0562    72.428413    62.724846    36.135548    70210.889   -308311.95 
    5910    1809.4518     164173.9    72.429574    72.429575    36.136128          120    79210.787    81439.154    35069.916   -1379.2708    8933.0072   -3852.3594    72.429574    62.725852    36.136128    65239.952   -308300.05 
    5920    1775.4629    164181.79    72.430734    72.430735    36.136706          120   -26066.824   -25330.941   -87994.411    739.11147    897.43933    812.19068    72.430734    62.726856    36.136706   -46464.058   -308226.65 
    5930    1833.5316    164189.66    72.431892    72.431892    36.137284          120    25940.316    23633.966   -34883.894      2272.82    5483.5323    785.03783    72.431892    62.727859    36.137284    4896.7958   -308348.88 
    5940    1759.2052    164197.52    72.433047    72.433048     36.13786          120    107940.95    107637.09    61950.302    211.66257    10159.536     -4251.47    72.433047     62.72886     36.13786    92509.446   -308188.77 
    5950    1841.2692    164205.37    72.434202    72.434203    36.138437          120    24014.989    29031.726   -28786.663   -533.43042    3917.4142   -2182.8511    72.434202     62.72986    36.138437    8086.6839   -308361.75 
    5960    1760.7423    164213.21    72.435355    72.435356    36.139012          120   -27274.799    -26380.23   -92619.971    734.37857    2138.4678    2359.3592    72.435355    62.730859    36.139012   -48758.333   -308189.75 
    5970    1820.5849    164221.04    72.436506    72.436506    36.139586          120     81302.47    76135.332    26113.259    1689.0865    7903.4469   -2090.4283    72.436506    62.731855    36.139586    61183.687   -308314.45 
    5980     1796.893    164228.86    72.437655    72.437656    36.140159          120    85868.175    89388.002    36878.846    968.11709    6882.8675   -3852.6622    72.437655     62.73285    36.140159    70711.674   -308262.57 
    5990     1779.436    164236.67    72.438804    72.438804    36.140732          120   -24119.186   -17089.395   -86987.519   -853.45036    1702.0236    1020.3351    72.438804    62.733845    36.140732   -42732.033   -308223.99 
    6000    1833.1646    164244.46    72.439949     72.43995    36.141304          120     16841.18    12814.838   -46726.866     792.4773    3951.0122    541.74995    72.439949    62.734837    36.141304   -5690.2828   -308335.91 
    6010    1761.1153    164252.24    72.441093    72.441094    36.141875          120    108198.49    106214.89    57102.405    2075.7126     8105.159   -2990.4965    72.441093    62.735827    36.141875    90505.261   -308181.03 
    6020    1847.9845    164260.01    72.442236    72.442236    36.142445          120    33372.363    40419.656   -24458.143   -436.23222    4397.2539   -727.74105    72.442236    62.736817    36.142445    16444.625   -308363.89 
    6030    1767.2891    164267.78    72.443377    72.443377    36.143014          120   -31092.057     -28700.5   -99167.878   -800.42612    1109.8637    1594.6839    72.443377    62.737805    36.143014   -52986.811   -308190.79 
    6040    1833.3538    164275.52    72.444515    72.444516    36.143582          120    72914.174    68285.635     16194.63    1780.3276    6236.8148   -727.49321    72.444515    62.738791    36.143582    52464.813    -308329.5 
    6050     1799.933    164283.25    72.445652    72.445652    36.144149          120    92742.336    94615.455    40001.729     422.7048     7467.327   -936.83875    72.445652    62.739776    36.144149    75786.507   -308256.65 
    6060    1798.5098    164290.98    72.446788    72.446788    36.144716          120   -17888.081   -12320.561   -83754.214   -665.99199    2152.1592    405.68897    72.446788    62.740759    36.144716   -37987.619   -308252.16 
    6070    1832.5611    164298.69    72.447921    72.447921    36.145281          120    7128.1099    5579.9448   -57155.392    1543.1425    3103.0171    550.75776    72.447921    62.741741    36.145281   -14815.779   -308323.37 
    6080    1765.8017    164306.38    72.449052    72.449052    36.145845          120    105751.75    103511.22    53614.372    474.90929    7927.8413   -48.558422    72.449052     62.74272    36.145845    87625.781   -308179.41 
    6090    1854.3653    164314.07    72.450182    72.450182    36.146409          120    43413.496    46358.765   -14070.441   -142.00594      5265.92   -870.30711    72.450182    62.743698    36.146409     25233.94   -308366.24 
    6100    1750.3393    164321.75     72.45131     72.45131    36.146972          120   -32397.586   -31429.531   -101783.99    1711.2018    1373.6403    112.47663     72.45131    62.744675    36.146972   -55203.701   -308144.17 
    6110    1842.7332     164329.4    72.452435    72.452436    36.147533          120    63405.504    61692.593    5558.6563    938.02247    5892.1354    1217.5501    72.452435     62.74565    36.147533    43552.251   -308338.83 
    6120    1781.7665    164337.05    72.453559    72.453559    36.148094          120    96228.468    97944.305    46464.793    15.337637    8068.6928   -995.49293    72.453559    62.746623    36.148094    80212.522   -308207.62 
    6130    1807.3568    164344.69    72.454681    72.454682    36.148654          120   -8872.2223   -9688.1393   -75398.304    1498.3621    3239.5078   -959.16764    72.454681    62.747595    36.148654   -31319.555   -308260.36 
    6140    1822.9405    164352.31    72.455801    72.455802    36.149213          120   -145.69841   -3190.0703   -67966.966    1213.1956    2678.6661    2125.2066    72.455801    62.748565    36.149213   -23767.578   -308291.57 
    6150    1778.6846    164359.91    72.456919     72.45692     36.14977          120    99246.832    103108.36    50740.341    654.36587    8138.1868   -145.15342    72.456919    62.749533     36.14977    84365.179    -308195.5 
    6160    1854.7442    164367.51    72.458036    72.458036    36.150328          120    52543.448    53652.482    -3542.104    1438.6496    7291.0822   -2111.1226    72.458036      62.7505    36.150328    34217.942   -308355.78 
    6170    1759.6749     164375.1    72.459151    72.459151    36.150884          120   -28001.387   -37471.845   -103844.53     374.4453    2348.1161    1626.0362    72.459151    62.751466    36.150884   -56439.253   -308152.23 
    6180    1860.1771    164382.67    72.460263    72.460263    36.151439          120    53954.707    54238.845   -3418.3362    981.63788    5404.4212    1538.7135    72.460263    62.752429    36.151439    34925.072   -308364.37 
    6190    1773.7448    164390.23    72.461373    72.461374    36.151993          120    96475.622     104658.9    51449.377    2537.7923     8965.683   -2490.9522    72.461373     62.75339    36.151993    84194.633   -308179.26 
    6200    1835.4412    164397.78    72.462482    72.462483    36.152546          120    1995.6911   -5271.3218   -68357.817    117.90523    5432.9779   -578.53413    72.462482    62.754351    36.152546   -23877.816   -308308.44 
    6210    1808.7649    164405.31    72.463589     72.46359    36.153098          120   -3067.5585    -13314.17   -76440.617   -267.51636    2951.0548     2591.845    72.463589     62.75531    36.153098   -30940.782   -308250.71 
    6220    1797.2107    164412.83    72.464694    72.464694    36.153649          120    93404.406    100877.32    47522.216    3251.5486    7363.0429   -686.46704    72.464694    62.756266    36.153649    80601.315    -308224.6 
    6230     1851.509    164420.34    72.465797    72.465798      36.1542          120    59049.954    62666.482    5556.3374    1311.3431    8001.3044   -1606.5553    72.465797    62.757222      36.1542    42424.258   -308338.14 
    6240    1768.5788    164427.84    72.466899    72.466899     36.15475          120   -24128.358   -37294.214   -104731.16   -1096.0416    3765.2673    1779.2581    72.466899    62.758176     36.15475   -55384.579   -308161.28 
    6250    1861.1942    164435.32    72.467998    72.467998    36.155298          120    46703.023    44531.206   -15365.006    2521.0514    4774.0361    1778.4164    72.467998    62.759128    36.155298    25289.741   -308356.34 
    6260    1777.3864    164442.79    72.469095    72.469095    36.155845          120     98215.69    106100.69     55128.77    2378.3726    7805.5176    213.62906    72.469095    62.760078    36.155845    86481.716   -308176.48 
    6270    1840.3972    164450.25    72.470191    72.470192    36.156392          120    9527.6815    3164.6717   -60032.654   -286.74775    6301.0444    1079.4494    72.470191    62.761027    36.156392     -15780.1   -308309.62 
    6280    1798.0274     164457.7    72.471285    72.471285    36.156938          120   -7813.7452   -18316.557   -87967.736     1745.469    4992.3728    2455.7121    72.471285    62.761974    36.156938   -38032.679   -308218.38 
    6290    1811.0005    164465.12    72.472376    72.472376    36.157482          120    90337.293     94553.07    40469.625    2776.4248    6624.4581    2344.6604    72.472376    62.762919    36.157482    75119.996   -308244.18 
    6300    1834.9419    164472.54    72.473466    72.473467    36.158026          120    68075.843    68925.043    15853.174    631.35812    6136.0139    1114.2438    72.473466    62.763863    36.158026    50951.353   -308293.83 
    6310    1779.6546    164479.96    72.474555    72.474555    36.158569          120   -22701.497   -32864.174   -104312.38    1345.6485    6775.7024    1616.6202    72.474555    62.764806    36.158569   -53292.682   -308174.83 
    6320     1860.441    164487.35     72.47564    72.475641    36.159111          120    39058.477    37217.582   -28179.484    2952.4856    7927.9629     3130.534     72.47564    62.765746    36.159111    16032.192   -308344.78 
    6330    1777.0982    164494.73    72.476724    72.476725    36.159652          120    103248.01     106909.5    57582.111    1427.0096    4767.7778    1371.6399    72.476724    62.766685    36.159652    89246.541   -308166.42 
    6340    1852.8458     164502.1    72.477807    72.477808    36.160192          120    17224.007    12958.537   -50231.074    880.92958    4549.1915     195.3578    72.477807    62.767623    36.160192   -6682.8433   -308326.05 
    6350    1797.3371    164509.46    72.478888    72.478889    36.160731          120   -14565.674   -19833.832   -94353.245    3108.0796     9901.176    2976.5985    72.478888    62.768559    36.160731   -42917.584   -308207.49 
    6360    1815.5103    164516.81    72.479966    72.479967    36.161269          120    86512.131    89475.748    34470.903    2811.0275    6394.2168    2248.7529    72.479966    62.769493    36.161269    70152.927   -308244.78 
    6370     1833.498    164524.14    72.481044    72.481044    36.161807          120    76494.138    77539.225    24812.528    714.90323    829.34866   -394.08347    72.481044    62.770426    36.161807    59615.297   -308281.52 
    6380    1775.5112    164531.47     72.48212     72.48212    36.162343          120   -21822.268   -25866.312    -99954.04    1653.8465    6246.4013     1155.839     72.48212    62.771358    36.162343   -49214.207   -308157.87 
    6390    1847.8999    164538.78    72.483193    72.483194    36.162879          120    29322.589    30365.073   -35808.482    3941.3534    9525.2786    2790.7053    72.483193    62.772287    36.162879    7959.7269   -308310.71 
    6400    1765.6931    164546.08    72.484265    72.484265    36.163414          120    104156.02    107822.89    59853.867    2226.3325    1716.6457    1130.4012    72.484265    62.773215    36.163414    90610.928   -308134.41 
    6410    1844.1006    164553.37    72.485336    72.485336    36.163948          120    25475.016    23585.658   -39294.582   -637.38458   0.12791259   -568.29702    72.485336    62.774143    36.163948    3255.3641   -308300.28 
    6420    1775.3169    164560.65    72.486405    72.486405    36.164481          120   -20955.808   -22150.527   -97713.801    1853.5213    8333.7083    948.21213    72.486405    62.775069    36.164481   -46940.045   -308153.11 
    6430    1823.7612    164567.91    72.487471    72.487472    36.165013          120    78717.795    82421.456    29490.036    4310.0672    5737.1158    2524.6894    72.487471    62.775992    36.165013    63543.096   -308253.96 
    6440    1819.5391    164575.17    72.488536    72.488537    36.165545          120    83492.629    83230.495    34554.449    536.50552   -1505.4218    672.60194    72.488536    62.776915    36.165545    67092.524   -308243.58 
    6450    1790.0889    164582.42    72.489601    72.489601    36.166076          120   -18605.535   -21319.971   -94665.815   -2563.2151    2912.3295   -1751.9459    72.489601    62.777836    36.166076   -44863.774   -308179.29 
    6460    1863.1455    164589.65    72.490662    72.490663    36.166606          120    19620.324    21221.471   -44802.763    2618.2349    7098.4082     1171.395    72.490662    62.778756    36.166606   -1320.3228   -308332.55 
    6470    1777.1296    164596.87    72.491722    72.491723    36.167134          120    104671.14    104648.62    61457.925    4275.2002    829.36618    3025.6931    72.491722    62.779674    36.167134    90259.229   -308148.12 
    6480    1876.8408    164604.08    72.492781    72.492782    36.167663          120    34312.293    30541.762   -27170.694   -2635.5149   -545.56593   -905.34989    72.492781    62.780591    36.167663    12561.121    -308358.6 
    6490    1784.0746    164611.29    72.493839    72.493839     36.16819          120   -25324.284   -26146.609   -100912.33   -2781.4405    5303.0078   -1470.1878    72.493839    62.781507     36.16819   -50794.408   -308160.41 
    6500    1851.1498    164618.47    72.494894    72.494894    36.168716          120     73880.79    73206.785    21834.795    4940.1282    3783.2206    2532.7843    72.494894     62.78242    36.168716    56307.457   -308301.93 
    6510    1815.2142    164625.65    72.495947    72.495948    36.169242          120    90972.689    85606.939    42595.089     2224.286   -412.79093    1611.0733    72.495947    62.783333    36.169242    73058.239   -308224.39 
    6520    1806.8304    164632.82       72.497    72.497001    36.169767          120   -14436.884   -18066.738   -85511.597   -4969.0092    3036.8407   -615.94635       72.497    62.784244    36.169767   -39338.406   -308206.45 
    6530    1840.0542    164639.98     72.49805    72.498051    36.170291          120    12021.905    11306.822    -54418.03    712.42193    6028.3184    1387.5953     72.49805    62.785154    36.170291   -10363.101   -308276.62 
    6540    1773.1999    164647.12    72.499099    72.499099    36.170814          120    106386.27    99874.706    58464.756    5368.1829    1724.6826    1160.6875    72.499099    62.786062    36.170814     88241.91   -308133.11 
    6550    1856.9469    164654.26    72.500146    72.500147    36.171337          120    43572.607    36301.558   -15378.011   -1361.1165    1167.0667    1154.8481    72.500146    62.786969    36.171337    21498.718   -308310.51 
    6560    1756.6939    164661.38    72.501192    72.501193    36.171859          120   -28343.068   -30088.082   -102829.94   -3370.1783    6344.2672    2646.6678    72.501192    62.787875    36.171859   -53753.698   -308096.99 
    6570    1847.5584    164668.49    72.502235    72.502236    36.172379          120    68213.604    62177.655    10123.352    3860.6563    4544.3549    42.978242    72.502235    62.788778    36.172379    46838.204   -308288.38 
    6580    1785.7623    164675.59    72.503277    72.503278    36.172899          120     97190.75    87864.241    47248.272    2829.5441    380.90198    519.43299    72.503277     62.78968    36.172899    77434.421   -308155.66 
    6590    1813.9336    164682.68    72.504318    72.504319    36.173418          120   -9090.2971   -13435.529   -78992.895   -2944.6183    4207.8923    3794.6955    72.504318    62.790582    36.173418   -33839.574   -308214.72 
    6600    1828.5939    164689.76    72.505356    72.505357    36.173937          120    4259.1605    289.12201   -66127.214    79.862654     6113.819    1031.3852    72.505356    62.791481    36.173937   -20526.311   -308244.01 
    6610    1791.0266    164696.82    72.506393    72.506393    36.174453          120    103784.91    95990.038    54739.039    3839.3418    1165.2429   -835.83238    72.506393    62.792379    36.174453    84837.995    -308162.5 
    6620    1863.3093    164703.87    72.507428    72.507428     36.17497          120    50790.537    44447.722   -6865.6925   -117.91826    1949.0461    2690.8148    72.507428    62.793275     36.17497    29457.522   -308314.68 
    6630    1783.3077    164710.92    72.508462    72.508462    36.175486          120   -29385.019   -33447.227   -105266.59   -2085.7677    5947.3913    2884.6146    72.508462     62.79417    36.175486   -56032.944   -308143.41 
    6640    1867.5834    164717.94    72.509492    72.509493       36.176          120    58177.173    53642.753    923.26292    2217.7301    2659.8202   -1267.9338    72.509492    62.795063       36.176    37581.063   -308320.88 
    6650    1802.5642    164724.96    72.510522    72.510522    36.176514          120    98165.854    93700.904    51744.117    1985.8944    942.69817    371.44576    72.510522    62.795955    36.176514    81203.625    -308181.1 
    6660    1844.3683    164731.97     72.51155    72.511551    36.177027          120   -1782.3444   -7945.5768   -72894.651   -1339.5243    4789.4227    3616.5218     72.51155    62.796845    36.177027   -27540.857   -308268.97 
    6670    1833.0645    164738.96    72.512576    72.512577    36.177539          120   -2977.4756   -7545.1568   -73937.455    102.69999    4214.8981   -32.842859    72.512576    62.797734    36.177539   -28153.362   -308244.28 
    6680    1813.1982    164745.94      72.5136    72.513601    36.178049          120    95346.546    94915.571    51653.013    2497.4457    882.80905   -1874.4366      72.5136     62.79862    36.178049    80638.377   -308200.34 
    6690     1870.605    164752.91    72.514623    72.514624     36.17856          120    57338.297    53842.986     1320.065    832.51019    2465.4008    1645.8814    72.514623    62.799506     36.17856    37500.449   -308320.94 
    6700    1790.3246    164759.87    72.515644    72.515645    36.179069          120   -27153.624   -34150.764   -106649.53   -793.61179    4731.8721    2453.2953    72.515644    62.800391    36.179069    -55984.64   -308150.08 
    6710    1875.4488    164766.81    72.516663    72.516663    36.179577          120    45926.663    45925.135   -8887.3485    969.34324    2313.5034   -2014.0559    72.516663    62.801273    36.179577    27654.816   -308329.75 
    6720    1801.0604    164773.74    72.517679     72.51768    36.180085          120    97127.601    98449.903    55055.928    2393.5837    1266.0151   -2048.9804    72.517679    62.802153    36.180085    83544.477   -308171.31 
    6730    1842.4129    164780.67    72.518695    72.518696    36.180592          120    5340.4039   -316.38497   -65865.796    317.91714    3478.8706    2438.4481    72.518695    62.803033    36.180592   -20280.592   -308259.18 
    6740    1816.7002    164787.58    72.519709     72.51971    36.181097          120   -11178.609   -13588.541   -82375.448   -1402.2394    3803.3499    403.65304    72.519709    62.803911    36.181097     -35714.2   -308204.46 
    6750    1798.5444    164794.47     72.52072    72.520721    36.181602          120    88504.294    91778.993    45993.122    1430.1828    1912.1952   -4231.5909     72.52072    62.804786    36.181602     75425.47   -308165.75 
    6760     1837.786    164801.36     72.52173    72.521731    36.182106          120    64928.154    62418.063    10711.298    2138.3314    2613.8667   -725.29616     72.52173    62.805661    36.182106    46019.172   -308249.16 
    6770    1761.7553    164808.23    72.522739    72.522739    36.182609          120   -27786.514   -31945.989   -104603.16   -1202.5593    4321.5663    2591.4635    72.522739    62.806535    36.182609   -54778.556   -308087.01 
    6780    1849.8783    164815.09    72.523745    72.523745    36.183111          120     36086.13    39443.464   -18896.145   -1235.0353    3320.7236   -3158.4824    72.523745    62.807406    36.183111    18877.817   -308273.15 
    6790    1765.1409    164821.94    72.524749    72.524749    36.183612          120    100801.06    100450.99     56228.89    2031.3019     2452.757   -4051.6765    72.524749    62.808276    36.183612    85826.979   -308091.84 
    6800    1844.5272    164828.78    72.525752    72.525753    36.184112          120    12581.226    7170.9426   -56260.794    771.28276     3922.472    1481.9224    72.525752    62.809145    36.184112   -12169.542   -308259.14 
    6810     1800.614    164835.61    72.526754    72.526754    36.184612          120   -19514.125   -18224.608   -88148.092   -2448.3366    4801.5913   -224.78026    72.526754    62.810012    36.184612   -41962.275   -308164.69 
    6820    1818.8092    164842.42    72.527752    72.527753     36.18511          120    84411.555    86080.212    37780.425    38.298815    3141.8596   -4667.6551    72.527752    62.810877     36.18511    69424.064   -308201.67 
    6830    1853.0645    164849.22     72.52875     72.52875    36.185608          120    73254.282    68287.001    17186.312    1969.3415    3269.5026     -1537.22     72.52875    62.811741    36.185608    52909.199   -308272.76 
    6840    1788.1365    164856.01    72.529746    72.529747    36.186105          120   -27137.794   -29514.433   -101314.57   -1093.5371    4542.5112    683.93518    72.529746    62.812603    36.186105   -52655.598   -308134.54 
    6850    1874.8626    164862.79     72.53074     72.53074    36.186601          120    27751.416    29573.644   -29182.173   -2004.4257    4642.1921   -3054.3616     72.53074    62.813464    36.186601    9380.9625   -308317.89 
    6860    1783.7845    164869.55    72.531731    72.531732    36.187095          120    103422.25    100463.18    55772.421    975.17778    3393.8404   -3220.7315    72.531731    62.814323    36.187095    86552.617   -308123.23 
    6870    1866.1058    164876.31    72.532722    72.532723     36.18759          120    20713.688    17154.687   -46615.902     1034.843    3254.7666   -793.44103    72.532722    62.815181     36.18759   -2915.8426   -308297.89 
    6880    1793.2758    164883.05    72.533711    72.533712    36.188083          120   -23902.264   -23218.859   -92502.088   -1811.5212    4542.6929   -1701.7075    72.533711    62.816037    36.188083    -46541.07    -308142.4 
    6890    1837.9532    164889.78    72.534698    72.534698    36.188575          120    81333.361    78911.496    32062.522    -1099.716    3898.8504   -3104.9436    72.534698    62.816892    36.188575    64102.459   -308236.22 
    6900    1827.6015     164896.5    72.535683    72.535684    36.189067          120    80556.932    77195.177    25565.715    1344.5422     3290.192   -1662.1242    72.535683    62.817745    36.189067    61105.941   -308213.67 
    6910    1798.6748    164903.21    72.536668    72.536668    36.189558          120   -23853.269   -23575.522   -96072.333   -108.69577    3232.7037   -1045.0673    72.536668    62.818598    36.189558   -47833.708   -308151.17 
    6920     1863.394    164909.91     72.53765     72.53765    36.190048          120    21954.282    19622.774   -37850.061   -1702.0301    3289.3644   -2556.5473     72.53765    62.819448    36.190048    1242.3318   -308287.75 
    6930    1784.1032    164916.59     72.53863     72.53863    36.190537          120    105138.17    100870.62    56620.015    439.56207    4037.3788   -1822.9741     72.53863    62.820297    36.190537    87542.936      -308118 
    6940    1879.4305    164923.28    72.539609     72.53961    36.191026          120    27764.685    27488.524   -36980.455     204.7464     3615.009   -742.57827    72.539609    62.821145    36.191026    6090.9179   -308319.07 
    6950    1799.9019    164929.95    72.540587    72.540588    36.191514          120   -27066.435   -26564.268   -96936.762   -1388.6878    1790.5124   -2162.0029    72.540587    62.821992    36.191514   -50189.155   -308149.38 
    6960    1864.4477     164936.6    72.541562    72.541563       36.192          120    76464.331    71080.872    23330.155    41.306388    3296.7049   -2443.8859    72.541562    62.822836       36.192    56958.453   -308285.15 
    6970    1843.0381    164943.24    72.542537    72.542537    36.192486          120    85774.096     82820.09    31559.178     47.50563    5051.9727    -1044.672    72.542537     62.82368    36.192486    66717.788   -308238.43 
    6980    1832.2329    164949.88     72.54351     72.54351    36.192972          120   -20779.094   -17566.957   -91281.434   -1763.4081    1907.7551   -1817.9716     72.54351    62.824523    36.192972   -43209.161   -308215.11 
    6990    1869.3848     164956.5    72.544481    72.544481    36.193456          120    13596.521    11783.977   -49657.607    962.33296    1337.6084   -2682.4599    72.544481    62.825364    36.193456   -8092.3697   -308293.55 
    7000    1810.0993    164963.11     72.54545     72.54545     36.19394          120    103618.12    98820.775    54731.645     1618.552    5344.2241   -1413.3674     72.54545    62.826203     36.19394    85723.514   -308166.41 
    7010    1879.5968    164969.72    72.546418    72.546418    36.194423          120     35730.22    35640.985   -27433.236   -1860.3548    3841.2503   -1994.1339    72.546418    62.827042    36.194423     14645.99   -308313.81 
    7020    1798.0645    164976.31    72.547385    72.547385    36.194905          120   -30227.291   -27280.667   -102655.26    710.26782    566.92306   -3060.3514    72.547385    62.827879    36.194905    -53387.74   -308140.62 
    7030    1865.6357    164982.89    72.548349    72.548349    36.195386          120     65630.18    64269.333    14071.994    4603.4392    4359.7377    -1522.447    72.548349    62.828714    36.195386    47990.502   -308283.14 
    7040    1822.3068    164989.46    72.549312    72.549312    36.195866          120     90128.15    86880.187     38068.12    1026.0166    5612.0165   -1726.0393    72.549312    62.829547    36.195866    71692.152   -308190.92 
    7050    1828.0713    164996.02    72.550274    72.550274    36.196346          120   -13927.181   -12647.187   -89309.349   -1731.4507    1382.9057   -3309.8752    72.550274    62.830381    36.196346   -38627.906   -308202.95 
    7060    1854.4654    165002.57    72.551233    72.551234    36.196825          120    2347.4368    4760.1737   -61312.088    4455.7212    3048.9676   -1564.3109    72.551233    62.831212    36.196825   -18068.159   -308258.62 
    7070    1797.4643     165009.1     72.55219    72.552191    36.197303          120    97636.246    96321.965    53153.889    5696.8498    6136.0579   -738.29968     72.55219    62.832041    36.197303      82370.7   -308137.36 
    7080    1870.8632    165015.63    72.553147    72.553148     36.19778          120    44481.342    42489.034   -20691.136   -1003.2206    2810.6418   -2468.3597    72.553147    62.832869     36.19778     22093.08   -308292.95 
    7090    1785.3734    165022.15    72.554102    72.554103    36.198256          120   -31594.322   -29161.273   -109260.89   -701.98305     1317.787   -1618.5128    72.554102    62.833696    36.198256   -56672.163   -308111.19 
    7100      1857.61    165028.64    72.555054    72.555055    36.198731          120    54962.971    56428.901    5010.9183     6836.854    5454.5628   -39.920941    72.555054    62.834521    36.198731     38800.93   -308264.37 
    7110    1808.4943    165035.13    72.556005    72.556006    36.199206          120    92081.486    89893.286    43498.833    3959.3992    4438.2672   -1102.6093    72.556005    62.835344    36.199206    75157.869   -308159.38 
    7120    1829.5818    165041.61    72.556955    72.556955     36.19968          120   -8026.8069    -6431.054   -84951.836   -3608.7143    1088.1994   -1749.4909    72.556955    62.836167     36.19968   -33136.566   -308204.02 
    7130    1839.2051    165048.08    72.557902    72.557903    36.200152          120   -5025.7506   -1742.8272   -71699.741    2031.0209    3908.1842    64.749449    72.557902    62.836987    36.200152   -26156.106   -308224.32 
    7140    1801.5812    165054.53    72.558848    72.558848    36.200624          120     93543.77    91326.987    50271.214    6769.4331    4712.4337     705.2096    72.558848    62.837806    36.200624    78380.657   -308143.28 
    7150    1869.9052    165060.97    72.559792    72.559793    36.201095          120    50446.083    50928.392   -10141.401   -53.068295    2707.9571   -1193.4702    72.559792    62.838624    36.201095    30411.025   -308288.28 
    7160    1778.1642    165067.41    72.560735    72.560735    36.201566          120   -33141.371   -27426.225   -110966.35   -2778.7767    2832.2281     113.5105    72.560735     62.83944    36.201566   -57177.981   -308093.54 
    7170    1870.6102    165073.83    72.561675    72.561676    36.202035          120     47934.54      47195.9   -5823.8115    4233.1616    3380.3441    2460.4438    72.561675    62.840255    36.202035    29768.876   -308289.32 
    7180    1794.5187    165080.23    72.562614    72.562614    36.202503          120    94844.141    92127.993    48241.148    3514.2141    3254.0394    245.03434    72.562614    62.841068    36.202503    78404.427   -308127.13 
    7190    1842.2556    165086.63    72.563552    72.563552    36.202971          120   -3534.2664    2206.0515   -75582.791   -2145.9643    3205.8548   -505.92037    72.563552     62.84188    36.202971   -25637.002    -308228.3 
    7200    1827.6538    165093.02    72.564487    72.564488    36.203438          120    -12205.77   -7175.5772   -82159.277     504.5572    2557.3061     3536.144    72.564487     62.84269    36.203438   -33846.875   -308196.56 
    7210    1810.9859    165099.39     72.56542    72.565421    36.203903          120    90440.308    86708.292    44622.398    3400.6833    2591.3103    2326.2178     72.56542    62.843498    36.203903    73923.666   -308160.48 
    7220    1862.4968    165105.75    72.566353    72.566353    36.204368          120    56801.251    57496.268    685.53689    611.87041    3344.6325   -967.90583    72.566353    62.844306    36.204368    38327.685   -308269.58 
    7230    1785.2231    165112.11    72.567284    72.567284    36.204833          120   -34063.437   -25230.307   -111687.92   -1257.5427     3487.249    2900.1426    72.567284    62.845112    36.204833   -56993.887   -308105.07 
    7240    1872.6646    165118.44    72.568212    72.568213    36.205296          120    38951.498    40136.166   -18085.906    1319.9717    3030.6154    4662.1531    72.568212    62.845916    36.205296    20333.919   -308290.89 
    7250    1787.2396    165124.77    72.569139    72.569139    36.205758          120    96532.538    92297.464    51830.037    2412.1433    2670.2462    161.22324    72.569139    62.846718    36.205758    80220.013   -308108.58 
    7260    1858.4871    165131.09    72.570065    72.570065     36.20622          120     3410.258      8602.91   -66710.292   -118.04427    4151.6676    802.40858    72.570065     62.84752     36.20622   -18232.375   -308259.56 
    7270    1811.1773     165137.4    72.570988    72.570989    36.206681          120   -18631.785   -12091.694   -91321.805   -698.53926    5548.9475    6072.2323    72.570988     62.84832    36.206681   -40681.761   -308159.19 
    7280    1829.7227    165143.68     72.57191     72.57191    36.207141          120    84468.845    81329.662     38895.21    2448.7887    3478.4365      2917.36     72.57191    62.849118    36.207141    68231.239   -308197.43 
    7290    1857.2574    165149.97     72.57283    72.572831      36.2076          120    64051.863    63745.773    8662.4777    2118.5678     3076.732    -648.5023     72.57283    62.849915      36.2076    45486.704   -308255.07 
    7300    1802.0302    165156.24    72.573749     72.57375    36.208059          120   -30912.694   -23947.756   -110694.14   -364.38459    6478.1784    3665.4267    72.573749    62.850711    36.208059   -55184.863   -308137.78 
    7310    1881.5086     165162.5    72.574665    72.574666    36.208516          120    29406.773    30895.027   -29311.552    1559.3825    6590.2661    5492.3781    72.574665    62.851505    36.208516    10330.083   -308305.61 
    7320    1804.1388    165168.74     72.57558     72.57558    36.208972          120      96789.7    95190.195    52169.444    2859.1211     2741.477    359.85091     72.57558    62.852297    36.208972    81383.113   -308140.81 
    7330    1872.8088    165174.98    72.576494    72.576494    36.209428          120    11775.069    16552.804   -58497.301    848.33866    4123.3249   -560.46361    72.576494    62.853088    36.209428   -10056.476   -308287.13 
    7340    1815.7324    165181.21    72.577406    72.577406    36.209883          120   -22946.488   -18859.323   -97444.062    882.51374    7864.2292    4542.2196    72.577406    62.853878    36.209883   -46416.624   -308165.81 
    7350     1844.206    165187.42    72.578315    72.578315    36.210337          120    77729.077    77827.682    31974.424    2412.6846    4802.7266    3453.4252    72.578315    62.854665    36.210337    62510.394   -308226.37 
    7360     1843.002    165193.62    72.579223    72.579224     36.21079          120    69976.242    72512.941    17632.934    1252.1768    2740.9387   -1220.2744    72.579223    62.855452     36.21079    53374.039   -308224.08 
    7370    1806.8131    165199.81    72.580131    72.580131    36.211242          120   -27118.493   -22616.653   -105263.14    912.25638    5142.1991    658.17138    72.580131    62.856238    36.211242   -51666.096   -308147.12 
    7380    1864.3194    165205.99    72.581035    72.581036    36.211694          120    21401.834    23438.877   -38656.572    1370.9488    5854.4346    4477.8818    72.581035    62.857021    36.211694    2061.3795   -308269.33 
    7390    1791.4433    165212.16    72.581938    72.581939    36.212144          120    95922.784    97485.853    54215.223    555.17648    4199.1077    1630.8637    72.581938    62.857803    36.212144    82541.287   -308114.36 
    7400    1866.5213    165218.32    72.582841    72.582841    36.212595          120    19328.245    22743.557   -46620.137    1492.5613    3547.7706   -1313.0236    72.582841    62.858585    36.212595   -1516.1119   -308273.78 
    7410    1800.6784    165224.47    72.583742    72.583742    36.213044          120   -26293.428   -23342.531   -101869.85    1526.8303    3772.3405    1421.9533    72.583742    62.859365    36.213044   -50501.936    -308134.4 
    7420    1841.9861     165230.6     72.58464     72.58464    36.213492          120    69959.308    72288.269    23261.318   -915.53409    4694.8252    3499.5437     72.58464    62.860142    36.213492    55169.632   -308221.62 
    7430       1839.7    165236.73    72.585537    72.585537     36.21394          120    75561.734    76775.968    24456.612    927.29426    4201.3326    57.777811    72.585537    62.860919     36.21394    58931.438   -308216.25 
    7440    1810.4047    165242.85    72.586433    72.586433    36.214387          120   -23118.733   -20965.239   -100886.87    2209.2641    3177.4477   -1041.5835    72.586433    62.861695    36.214387   -48323.616   -308154.13 
    7450    1867.8032    165248.95    72.587326    72.587327    36.214832          120    11636.853    14937.556   -50758.887   -1404.2377    3524.7406    2520.5928    72.587326    62.862469    36.214832   -8061.4927    -308275.9 
    7460    1802.7058    165255.04    72.588218    72.588219    36.215277          120    95157.426    95434.658    49425.754   -1105.0027    3588.8707    2109.1043    72.588218    62.863241    36.215277    80005.946   -308136.66 
    7470    1879.5017    165261.13    72.589109    72.589109    36.215722          120    28975.211    27899.603   -38579.459     1624.059    3814.7187   -791.17536    72.589109    62.864013    36.215722    6098.4517   -308299.66 
    7480    1806.2766     165267.2    72.589998    72.589999    36.216165          120   -31126.923   -28470.305   -106496.38   -401.28843    3689.9634    504.05132    72.589998    62.864783    36.216165   -55364.534   -308144.19 
    7490    1866.9125    165273.25    72.590884    72.590885    36.216608          120     62942.54    64781.533    10644.256   -2532.9998    2840.9256    2514.1348    72.590884    62.865551    36.216608    46122.777   -308272.63 
    7500    1836.6714     165279.3    72.591769     72.59177    36.217049          120    83235.816    80140.285    27549.858   -16.361764     2929.072    73.357211    72.591769    62.866317    36.217049    63641.986   -308208.24 
    7510    1831.5954    165285.34    72.592654    72.592654     36.21749          120   -18791.066   -19344.478   -94792.184     292.5611    4497.9613   -630.22837    72.592654    62.867083     36.21749   -44309.243   -308197.53 
    7520    1871.5131    165291.36    72.593535    72.593536     36.21793          120    2982.8583    6158.3182   -61687.087   -2176.9581    3785.8677    1781.4844    72.593535    62.867846     36.21793   -17515.303   -308282.09 
    7530    1805.2554    165297.37    72.594415    72.594415    36.218369          120    96158.909    93532.643    43517.355   -820.25042    1905.4991    344.98423    72.594415    62.868608    36.218369    77736.302   -308141.39 
    7540    1890.4226    165303.37    72.595293    72.595294    36.218807          120    37950.653    33903.754   -29158.652    230.09037    3843.8992   -1052.7729    72.595293    62.869369    36.218807    14231.918   -308322.59 
    7550    1797.6272    165309.36     72.59617    72.596171    36.219245          120   -34645.027   -32374.801   -107047.12   -1048.4945    4966.0204    853.12422     72.59617    62.870128    36.219245   -58022.315   -308125.97 
    7560    1871.8329    165315.33    72.597045    72.597045    36.219681          120    58033.649    57543.463   -105.36826   -208.71495     1882.863    401.66023    72.597045    62.870885    36.219681    38490.581   -308283.99 
    7570    1818.9757     165321.3    72.597918    72.597918    36.220117          120    89630.491    84178.804    31081.859    664.99535    2003.2332   -894.34593    72.597918    62.871641    36.220117    68297.051   -308171.46 
    7580     1834.323    165327.26     72.59879     72.59879    36.220552          120   -14156.729   -14198.058   -85076.799    78.562211    4426.2444    510.29481     72.59879    62.872397    36.220552   -37810.529   -308204.75 
    7590    1843.3016     165333.2    72.599659     72.59966    36.220986          120   -3454.2475   -1160.5126   -69738.142    420.72235    2898.3567    814.28169    72.599659     62.87315    36.220986   -24784.301    -308224.6 
    7600      1806.42    165339.13    72.600527    72.600528    36.221419          120    95663.505     91175.84    40017.302    1225.9861    734.34754   -1177.8051    72.600527    62.873901    36.221419    75618.882    -308145.8 
    7610    1871.5567    165345.05    72.601394    72.601395    36.221851          120    45089.169    42332.348   -17240.756    788.32314    2679.6378    109.05654    72.601394    62.874652    36.221851    23393.587   -308284.69 
    7620    1788.8516    165350.96     72.60226     72.60226    36.222283          120    -35856.69   -31802.526   -106691.66    239.84045     3598.463    2384.6347     72.60226    62.875402    36.222283   -58116.958    -308109.5 
    7630    1876.5472    165356.86    72.603123    72.603123    36.222714          120    51081.574    49880.492   -9059.3932    685.83901    754.76586   -758.50692    72.603123    62.876149    36.222714    30634.224   -308295.69 
    7640    1806.2766    165362.75    72.603984    72.603985    36.223143          120    92281.775    87282.577    38637.687    939.19892    961.65884   -1724.1547    72.603984    62.876896    36.223143    72734.013   -308146.74 
    7650    1850.0984    165368.63    72.604846    72.604846    36.223573          120   -9191.9047   -7116.0003   -75458.544     288.5989    3432.4081    3067.4892    72.604846    62.877641    36.223573   -30588.816   -308240.55 
    7660    1835.9288     165374.5    72.605705    72.605705    36.224002          120   -10461.848   -7242.5909   -78370.111   -524.45188    1904.2562    2083.1691    72.605705    62.878385    36.224002    -32024.85   -308210.74 
    7670     1816.535    165380.36    72.606561    72.606562    36.224429          120     91217.64    86834.523    39252.901    42.344647    437.78056   -2756.9537    72.606561    62.879127    36.224429    72435.021   -308169.82 
    7680    1861.7446    165386.21    72.607418    72.607418    36.224856          120    51822.672    48475.445    -5354.441    1085.2224    2779.7989    729.28598    72.607418    62.879869    36.224856    31647.892   -308266.22 
    7690    1790.0664    165392.05    72.608273    72.608273    36.225283          120   -35741.516   -30878.009   -106523.46   -634.42184    3415.3432    5143.1721    72.608273    62.880609    36.225283   -57714.327   -308114.89 
    7700     1860.849    165397.88    72.609125    72.609126    36.225708          120    41207.858    42007.265    -16995.17   -1164.5956    1464.7345   -579.88943    72.609125    62.881347    36.225708    22073.318   -308265.89 
    7710    1793.8274    165403.69    72.609976    72.609977    36.226133          120    95100.053    87965.804    43907.895     1430.392    1826.8427   -2508.0011    72.609976    62.882085    36.226133    75657.917   -308123.85 
    7720    1841.6681     165409.5    72.610827    72.610827    36.226557          120   -1214.0098   -1188.1334    -67764.37    756.66079    3806.1817    4120.3274    72.610827    62.882821    36.226557   -23388.838   -308226.21 
    7730    1811.3612     165415.3    72.611675    72.611676    36.226981          120   -18575.361   -11922.546   -85423.862   -1136.2008    3286.5246    3868.1037    72.611675    62.883556    36.226981   -38640.589   -308162.61 
    7740    1811.8429    165421.09    72.612522    72.612522    36.227403          120    85821.488    82100.175    33769.413    1037.4119    1372.7161   -2436.3188    72.612522    62.884289    36.227403    67230.359   -308163.18 
    7750    1843.4704    165426.87    72.613368    72.613368    36.227825          120    61260.055    54157.823    2490.7193    2047.3542     1984.548    198.80402    72.613368    62.885022    36.227825    39302.866   -308231.02 
    7760    1780.8491    165432.64    72.614212    72.614213    36.228246          120   -34582.252   -29299.433   -105851.42    360.45254    4559.3295     5362.326    72.614212    62.885753    36.228246   -56577.703   -308098.92 
    7770    1854.7118     165438.4    72.615054    72.615055    36.228666          120    30584.105    35386.099   -28674.249    643.71147     3190.373    1515.0628    72.615054    62.886482    36.228666    12431.985   -308256.05 
    7780    1783.4598    165444.14    72.615895    72.615896    36.229086          120    97507.756    89731.833    44899.425    1631.4769   -487.39922   -1046.7016    72.615895    62.887211    36.229086    77379.671   -308104.86 
    7790     1840.129    165449.89    72.616735    72.616736    36.229505          120    8334.5068    5237.9695   -60859.262    1602.7501    2862.1236    2184.5389    72.616735    62.887938    36.229505   -15762.262   -308225.73 
    7800    1804.1618    165455.62    72.617574    72.617574    36.229923          120   -24586.864   -16115.561    -94603.83    1762.2587    6888.8988     3766.681    72.617574    62.888664    36.229923   -45102.085   -308149.77 
    7810    1813.7893    165461.33     72.61841     72.61841     36.23034          120     79341.68    78406.329      26628.2    84.955544    652.05225    1212.3778     72.61841    62.889388     36.23034    61458.736   -308170.65 
    7820    1836.6454    165467.04    72.619245    72.619246    36.230757          120    69160.026    60932.275    9693.3009     882.7339    -1011.098   -216.75928    72.619245    62.890112    36.230757    46595.201   -308219.84 
    7830    1784.8912    165472.75    72.620079     72.62008    36.231173          120   -30093.222   -27461.516   -106461.83     4252.741     7411.437    1034.6472    72.620079    62.890834    36.231173    -54672.19   -308110.36 
    7840    1856.2254    165478.43    72.620911    72.620912    36.231589          120    22799.137    28285.282   -39202.506    639.56012    5807.6368    2816.1014    72.620911    62.891555    36.231589    3960.6376   -308262.39 
    7850    1780.2031    165484.11    72.621742    72.621742    36.232003          120     97058.18    91655.033     46641.85   -1780.5289   -2293.8532    1265.6784    72.621742    62.892274    36.232003    78451.688   -308100.82 
    7860    1859.5864    165489.79    72.622572    72.622573    36.232417          120    17367.896    13079.078   -52013.183    4434.3687    2722.6793   -1304.1491    72.622572    62.892993    36.232417   -7188.7363   -308269.48 
    7870    1801.3248    165495.45      72.6234    72.623401     36.23283          120   -26837.677   -20600.897   -99777.405    5072.7347    9976.8245    182.48857      72.6234     62.89371     36.23283   -49071.993   -308146.33 
    7880    1841.3428     165501.1    72.624227    72.624227    36.233242          120    73014.871    73936.081    20767.914    -2776.997     1427.286    2592.4094    72.624227    62.894426    36.233242    55906.289   -308230.82 
    7890    1847.9758    165506.74    72.625052    72.625053    36.233654          120    74122.125    69438.124    18285.715    599.17041    -2007.269    49.204663    72.625052    62.895141    36.233654    53948.654   -308244.64 
    7900    1811.0869    165512.38    72.625877    72.625878    36.234066          120       -26263   -23567.924   -99479.371    8193.8219    8251.8001    -2351.375    72.625877    62.895855    36.234066   -49770.098   -308167.16 
    7910    1873.2387       165518      72.6267      72.6267    36.234476          120    14161.279    21008.553   -46706.823    1110.3629    7772.5988    119.79969      72.6267    62.896568    36.234476   -3845.6638   -308299.74 
    7920    1795.9495    165523.62    72.627521    72.627521    36.234886          120    95503.054    95239.159    47311.609   -3286.1792   -1814.0953    1144.7445    72.627521    62.897279    36.234886    79351.274   -308136.12 
    7930    1870.7272    165529.23    72.628342    72.628342    36.235296          120    23956.487    24154.385   -38624.052    5327.7535      2209.31    -1010.792    72.628342     62.89799    36.235296    3162.2734   -308296.22 
    7940    1791.9917    165534.84    72.629162    72.629162    36.235705          120   -31714.498   -23449.388   -98903.937    6739.9041    11215.749   -2589.3976    72.629162      62.8987    36.235705   -51355.941   -308129.88 
    7950    1846.3888    165540.43    72.629979     72.62998    36.236113          120    65343.448    71255.452    15737.271   -2437.6878    3949.0673   -1103.9586    72.629979    62.899408    36.236113    50778.723   -308246.37 
    7960    1814.6623    165546.02    72.630797    72.630797     36.23652          120    78741.235    79520.276     27679.28   -642.49588   -1911.2207     277.4264    72.630797    62.900116     36.23652    61980.264   -308179.82 
    7970    1809.4568     165551.6    72.631614    72.631614    36.236928          120   -22001.292   -18123.306   -89536.935    7559.2558    7645.2417    -1991.563    72.631614    62.900823    36.236928   -43220.511   -308169.57 
    7980    1845.6855    165557.18    72.632429    72.632429    36.237335          120    5647.0618     14733.06   -53034.294    2965.2855    10173.291    -4304.626    72.632429    62.901529    36.237335   -10884.724   -308247.16 
    7990    1788.6221    165562.74    72.633242    72.633243    36.237741          120    93449.307    97681.295    47837.435    -3795.243   -674.82304   -1331.9608    72.633242    62.902234    36.237741    79656.012   -308126.08 
    8000    1868.0238    165568.31    72.634056    72.634057    36.238147          120    32739.798    32355.383   -28018.696    2485.7749    717.89217   -936.91383    72.634056    62.902938    36.238147    12358.828   -308295.12 
    8010    1790.5267    165573.87    72.634869     72.63487    36.238552          120   -30969.413   -27570.194   -102470.85    6514.5795    10635.926   -3725.1353    72.634869    62.903642    36.238552   -53670.152   -308131.35 
    8020    1858.5903    165579.41     72.63568     72.63568    36.238957          120    58143.131      64272.6    6774.2484   -1626.5899    4411.4498   -3520.6201     72.63568    62.904345    36.238957    43063.326   -308276.05 
    8030    1819.7221    165584.95     72.63649    72.636491    36.239361          120    82823.854    83823.449    33307.971   -2710.1519   -3075.1622   -2221.4108     72.63649    62.905046    36.239361    66651.758   -308193.86 
    8040    1827.1232    165590.49      72.6373    72.637301    36.239765          120    -12778.66   -15744.743    -86140.29    4779.1385    5694.4158    -1220.382      72.6373    62.905748    36.239765   -38221.231   -308210.74 
    8050    1842.0457    165596.02    72.638108    72.638109    36.240168          120     2336.304     3572.593    -65123.37    2418.5462    9025.0976    -1760.313    72.638108    62.906448    36.240168   -19738.158   -308243.54 
    8060    1800.9402    165601.54    72.638915    72.638916    36.240571          120    91137.829    93896.761    45509.785   -3974.0591    -1339.722   -3435.3223    72.638915    62.907146    36.240571    76848.125   -308156.77 
    8070    1855.6913    165607.05    72.639722    72.639722    36.240973          120     40598.52    39261.856   -18464.781    793.07943   -232.65178     -2011.92    72.639722    62.907845    36.240973    20465.198   -308274.45 
    8080    1783.2732    165612.56    72.640527    72.640528    36.241375          120   -28326.431   -31932.866   -106112.78    4015.6573    9680.8421    1197.7659    72.640527    62.908543    36.241375    -55457.36    -308121.8 
    8090    1851.4328    165618.06    72.641331    72.641332    36.241776          120    53812.303    53105.503   -2917.1056    -2290.134    4064.8121   -1361.1542    72.641331    62.909239    36.241776      34666.9   -308266.94 
    8100    1800.5544    165623.56    72.642134    72.642135    36.242177          120    85880.072    86863.872    40531.028   -2078.0103   -2910.9847   -3776.2212    72.642134    62.909934    36.242177    71091.657   -308159.82 
    8110    1826.4999    165629.05    72.642937    72.642938    36.242578          120   -8268.5209   -10442.966   -77788.218    2875.2305    5546.9266    380.09014    72.642937     62.91063    36.242578   -32166.568    -308215.8 
    8120     1832.545    165634.53    72.643739    72.643739    36.242977          120   -1807.8939    -5421.406   -74370.366   -369.90675    8921.0703     781.9071    72.643739    62.911324    36.242977   -27199.889   -308229.32 
    8130    1800.0168       165640    72.644538    72.644539    36.243376          120    90013.578    88571.897    42344.697    -3262.916   -816.22916   -3397.6051    72.644538    62.912016    36.243376    73643.391   -308160.63 
    8140    1861.3155    165645.47    72.645338    72.645339    36.243775          120    46626.254    45693.958   -6338.5949    846.54338   -57.993347   -1767.6674    72.645338    62.912709    36.243775    28660.539   -308291.29 
    8150     1787.805    165650.94    72.646137    72.646138    36.244174          120   -29966.855   -31827.169   -105411.72    1034.5761    9910.6499    424.89886    72.646137    62.913401    36.244174    -55735.25   -308136.11 
    8160    1862.2055    165656.39    72.646934    72.646935    36.244572          120    48027.953     45175.73   -13970.272   -3233.6412    4671.8516   -3187.0122    72.646934    62.914091    36.244572    26411.137   -308294.93 
    8170      1805.18    165661.84    72.647731    72.647731    36.244969          120    90613.286    87491.198    45010.205   -1259.1659   -2846.3817   -3259.6615    72.647731    62.914781    36.244969    74371.563   -308173.84 
    8180    1840.4987    165667.28    72.648527    72.648528    36.245366          120   -3434.6817   -3733.5536   -67017.472    1955.1342    5679.5923   -400.58946    72.648527    62.915471    36.245366   -24728.569   -308249.81 
    8190     1827.201    165672.72    72.649322    72.649322    36.245763          120   -8731.9246   -10133.465   -81777.345   -1705.2476    10176.743   -2937.4488    72.649322    62.916159    36.245763   -33547.578   -308222.64 
    8200    1811.4666    165678.15    72.650115    72.650116    36.246159          120    88597.498    83547.656     36559.26   -3585.5882    75.775779   -4780.9375    72.650115    62.916846    36.246159    69568.138   -308189.44 
    8210    1859.1553    165683.58    72.650908    72.650909    36.246554          120    54917.957    53279.396    3335.2588    715.10156    15.758573   -2170.5721    72.650908    62.917533    36.246554    37177.537   -308291.79 
    8220    1789.3062       165689    72.651701    72.651702     36.24695          120   -31836.409   -29530.668   -102682.54    1582.0954    9778.8834   -1186.8595    72.651701    62.918219     36.24695   -54683.205   -308144.03 
    8230    1876.4519    165694.41    72.652492    72.652493    36.247344          120    40621.883    36453.384   -23906.662   -3697.5347    5838.6428   -4771.3509    72.652492    62.918904    36.247344    17722.868   -308329.49 
    8240    1801.5827    165699.82    72.653282    72.653283    36.247739          120    95425.675    89744.324     44730.28   -2459.2666    -916.4829   -4458.5859    72.653282    62.919589    36.247739    76633.426   -308170.94 
    8250    1864.9351    165705.22    72.654072    72.654073    36.248133          120    1993.6164    5362.4818   -59584.675    3356.7001    5333.6797   -818.86467    72.654072    62.920273    36.248133   -17409.526   -308306.29 
    8260    1829.4391    165710.62    72.654861    72.654861    36.248526          120   -17954.114   -15967.877   -87563.731    174.30655    9150.7704   -2367.3283    72.654861    62.920956    36.248526   -40495.241   -308231.43 
    8270    1836.7818    165716.01    72.655648    72.655649    36.248919          120    85900.681    78167.398     28410.18   -4446.0543    1945.1558   -5224.1612    72.655648    62.921638    36.248919     64159.42   -308247.58 
    8280    1864.8338    165721.39    72.656435    72.656435    36.249312          120    63069.923    61157.626     6438.921    844.08352    1951.2028   -2752.3155    72.656435    62.922319    36.249312     43555.49   -308307.93 
    8290    1809.2737    165726.77    72.657221    72.657222    36.249704          120   -34324.571   -27152.232   -100202.32     4110.139    8410.1279   -437.22918    72.657221       62.923    36.249704   -53893.042   -308190.87 
    8300    1881.1953    165732.14    72.658006    72.658006    36.250095          120    30278.999    27572.132   -32662.734   -2277.7884    5182.5251   -3878.8831    72.658006    62.923679    36.250095    8396.1322   -308344.87 
    8310    1803.7829     165737.5    72.658789     72.65879    36.250486          120    98097.584    90965.035    41489.912   -2348.2163    1266.4285   -4810.4083    72.658789    62.924358    36.250486    76850.844   -308180.95 
    8320    1873.8892    165742.86    72.659573    72.659573    36.250877          120    8447.6541    12718.773   -53254.499    3288.4067    4625.5765   -988.50299    72.659573    62.925037    36.250877   -10696.024   -308331.16 
    8330      1812.74    165748.22    72.660355    72.660356    36.251267          120   -27306.673   -21432.944   -90420.307    1768.7969    6499.4733   -1034.7755    72.660355    62.925714    36.251267   -46386.642   -308202.88 
    8340    1844.4849    165753.56    72.661135    72.661136    36.251657          120    78743.307    72655.578    20404.308   -2259.0391    3059.2608   -4841.2584    72.661135     62.92639    36.251657    57267.731   -308271.04 
    8350    1843.3507    165758.89    72.661915    72.661916    36.252046          120    69636.911    67531.025    9635.1895     524.3115    2166.9555   -3343.3836    72.661915    62.927065    36.252046    48934.375   -308269.53 
    8360    1807.6638    165764.23    72.662695    72.662695    36.252435          120   -34023.798   -24705.932   -96375.239    2671.6531    4781.1342    646.16573    72.662695     62.92774    36.252435   -51701.657   -308195.33 
    8370    1862.9989    165769.55    72.663472    72.663473    36.252823          120    17329.839    18976.213   -41256.224    28.369176    5128.8914   -1806.6599    72.663472    62.928414    36.252823   -1650.0576   -308313.87 
    8380    1794.7482    165774.86    72.664249    72.664249     36.25321          120    97767.672    91306.216     38601.29   -332.49001     3208.219   -4808.7717    72.664249    62.929086     36.25321    75891.726   -308170.04 
    8390    1859.9477    165780.17    72.665025    72.665025    36.253597          120    15840.601    20594.085   -47717.202    784.27271    2579.6179    -858.6197    72.665025    62.929758    36.253597   -3760.8388   -308309.94 
    8400    1797.1295    165785.48    72.665799      72.6658    36.253984          120   -35135.405   -25097.696   -94822.129    1219.4288    4928.5251    1720.8726    72.665799    62.930429    36.253984   -51685.077   -308178.11 
    8410    1836.2722    165790.77    72.666572    72.666573    36.254369          120    69782.531    66159.422    12873.564    612.56163     5569.781   -3426.6247    72.666572    62.931098    36.254369    49605.173   -308262.46 
    8420    1820.7118    165796.05    72.667345    72.667345    36.254755          120     76020.61    72890.124    13890.557   -508.26489    3176.7817    -3140.372    72.667345    62.931767    36.254755    54267.097   -308230.83 
    8430    1803.1717    165801.34    72.668116    72.668117     36.25514          120   -30269.822   -19891.308   -95184.322    400.58428    2756.1094    2172.5943    72.668116    62.932436     36.25514   -48448.484   -308195.13 
    8440    1844.2039    165806.61    72.668886    72.668887    36.255524          120    7136.6343    11960.741   -50628.759    1121.8592    5837.5991   -565.22202    72.668886    62.933102    36.255524   -10510.461    -308283.4 
    8450    1787.2781    165811.87    72.669655    72.669655    36.255907          120    95536.694    90625.519    38399.756   -246.62622    5069.3801   -3522.7322    72.669655    62.933768    36.255907     74853.99   -308163.17 
    8460    1857.9535    165817.13    72.670423    72.670424    36.256291          120    24779.462    29058.212   -41265.476   -429.00353    2368.2003    579.93442    72.670423    62.934433    36.256291    4190.7325   -308314.18 
    8470    1792.4888    165822.38     72.67119    72.671191    36.256673          120   -36169.241   -26677.745   -101647.41    339.54919    3347.3945    1434.3717     72.67119    62.935098    36.256673   -54831.464   -308176.35 
    8480    1845.2512    165827.62    72.671955    72.671956    36.257055          120    60361.718    60704.258    5396.8351   -22.223675    5259.6538   -2622.5204    72.671955     62.93576    36.257055     42154.27   -308289.19 
    8490    1824.1834    165832.85     72.67272    72.672721    36.257437          120    79120.434    79344.758    20287.786    67.932932    4001.7478   -810.42637     72.67272    62.936422    36.257437    59584.326   -308245.22 
    8500    1813.4737    165838.08    72.673484    72.673485    36.257818          120   -22607.808   -14907.115   -93125.337   -213.13058    1592.3656    1949.3853    72.673484    62.937084    36.257818   -43546.753   -308224.12 
    8510     1847.124     165843.3    72.674246    72.674247    36.258198          120    412.44774    5055.6692   -61055.219   -791.75576    3739.9835    -1537.731    72.674246    62.937744    36.258198   -18529.034   -308296.55 
    8520    1791.0035    165848.51    72.675007    72.675008    36.258578          120    90338.167    90794.776    38503.358    469.34793    4788.0722   -1580.5953    72.675007    62.938403    36.258578      73212.1   -308178.59 
    8530    1855.9614    165853.72    72.675768    72.675769    36.258957          120    32457.576    37649.312   -31115.295    672.89192    2292.1873    1841.0947    72.675768    62.939062    36.258957    12997.198   -308318.18 
    8540    1777.8968    165858.92    72.676528    72.676528    36.259336          120   -35142.661   -29063.573   -105561.21   -1506.7394    2407.8915    219.80093    72.676528     62.93972    36.259336   -56589.147    -308154.1 
    8550    1840.7079    165864.11    72.677286    72.677286    36.259714          120    53128.954    53781.858   -1133.9384   -599.54626     4965.203    -2392.889    72.677286    62.940376    36.259714    35258.958   -308289.07 
    8560    1791.8714    165869.29    72.678043    72.678043    36.260092          120     80866.95    84273.152    29386.438    2084.7309    3508.2323    905.55191    72.678043    62.941032    36.260092     64842.18   -308187.05 
    8570    1804.3756    165874.47      72.6788      72.6788     36.26047          120   -16578.764   -9674.9783   -85421.043   -571.83874     1721.766    2713.2559      72.6788    62.941688     36.26047   -37224.928   -308215.27 
    8580    1816.0646    165879.65    72.679555    72.679556    36.260847          120   -4217.2894   -2927.7891   -68911.289   -2101.0662     5405.159   -1828.8607    72.679555    62.942342    36.260847   -25352.123   -308241.78 
    8590    1770.8317    165884.81    72.680309     72.68031    36.261223          120     86387.84    87485.554    39381.002    1135.8717    5274.7026   -1536.4511    72.680309    62.942995    36.261223    71084.799   -308147.19 
    8600    1836.9141    165889.97    72.681063    72.681064    36.261599          120    38430.912    44042.392   -18158.234    1584.4677    1298.3211    2954.5781    72.681063    62.943648    36.261599    21438.357   -308289.09 
    8610     1753.273    165895.13    72.681816    72.681817    36.261975          120   -34125.455   -30987.343   -105932.19   -1800.6507    3285.9452    1400.2923    72.681816      62.9443    36.261975   -57014.997   -308113.08 
    8620    1830.0147    165900.27    72.682567    72.682568     36.26235          120     45935.28    45899.819   -9188.4575   -1250.1264    7223.8227   -3299.5751    72.682567     62.94495     36.26235    27548.881   -308277.26 
    8630    1768.1402    165905.41    72.683318    72.683318    36.262724          120    83046.321    85881.392    36034.306    1927.5961    2790.7617   -248.93417    72.683318      62.9456    36.262724    68320.673   -308146.69 
    8640    1803.6942    165910.55    72.684068    72.684069    36.263098          120   -9098.3899   -6076.1568   -75885.697     338.3372   -803.27627    3767.1155    72.684068     62.94625    36.263098   -30353.414   -308223.59 
    8650    1791.9031    165915.68    72.684817    72.684818    36.263472          120   -9943.6364   -8906.4847    -78654.71   -2033.0186    5258.6109   -831.24542    72.684817    62.946899    36.263472    -32501.61   -308199.94 
    8660    1777.8656     165920.8    72.685565    72.685565    36.263845          120     83046.98    84833.704    33641.248     240.0427    6034.0503   -3493.9327    72.685565    62.947546    36.263845    67173.977   -308170.63 
    8670    1823.5139    165925.92    72.686312    72.686313    36.264218          120    47180.131    48306.417   -8466.9827    1633.1446   -802.33234    1594.1223    72.686312    62.948194    36.264218    29006.521   -308268.55 
    8680    1759.6395    165931.03    72.687059     72.68706     36.26459          120    -32720.27   -31755.141   -107232.64   -1059.6325   -775.57474    3265.3355    72.687059     62.94884     36.26459   -57236.017   -308133.82 
    8690    1839.0763    165936.13    72.687804    72.687804    36.264962          120     37366.06    40668.548   -23450.412   -1468.5771    6266.3518   -2819.5936    72.687804    62.949485    36.264962    18194.732   -308303.08 
    8700    1772.0124    165941.23    72.688548    72.688548    36.265333          120    86761.996    87033.732    36998.201    654.73438    3505.5271   -2539.8506    72.688548     62.95013    36.265333    70264.643   -308161.19 
    8710    1828.8256    165946.32    72.689292    72.689292    36.265704          120   -1168.7504   -2357.8192   -69611.816    620.71346   -2906.1357    2845.1435    72.689292    62.950774    36.265704   -24379.462   -308282.83 
    8720    1799.8466     165951.4    72.690034    72.690035    36.266075          120   -17651.804   -13417.461   -89498.838   -1691.2908    1409.0973    830.23654    72.690034    62.951417    36.266075   -40189.368   -308222.47 
    8730    1804.3005    165956.48    72.690775    72.690775    36.266444          120    78735.263        80103     26321.22   -1570.8867     6176.334   -4380.0869    72.690775    62.952058    36.266444    61719.828    -308232.7 
    8740    1833.2664    165961.55    72.691515    72.691516    36.266814          120      55773.4    52458.299   -2555.5747    711.52314    1406.1628   -1325.0649    72.691515    62.952699    36.266814    35225.375   -308295.15 
    8750    1781.2612    165966.61    72.692255    72.692255    36.267183          120   -32451.427   -30263.807   -108069.73   -100.45556   -2296.2526     3101.305    72.692255     62.95334    36.267183   -56928.322   -308186.24 
    8760    1845.2752    165971.67    72.692992    72.692993    36.267551          120    28218.175    31728.638   -32883.938   -2703.4108    3868.7231   -2145.1228    72.692992    62.953979    36.267551    9020.9581   -308323.32 
    8770    1783.3673    165976.71    72.693729     72.69373    36.267918          120    89911.848    86352.221    37984.246   -1489.3103    5378.4703   -4635.3992    72.693729    62.954617    36.267918    71416.105   -308192.55 
    8780    1838.1847    165981.76    72.694466    72.694466    36.268286          120    6114.8293    4862.9285   -63806.432    949.34547   -574.24636    1275.6447    72.694466    62.955255    36.268286   -17609.558   -308310.11 
    8790    1799.9982    165986.79    72.695201    72.695201    36.268653          120   -23448.297   -19075.391   -94819.315   -1683.8158   -77.877012    1989.4352    72.695201    62.955891    36.268653   -45781.001   -308230.09 
    8800    1817.5911    165991.82    72.695934    72.695935    36.269018          120    74064.466    73180.301    20291.267   -3381.2864    5009.7234   -4459.1617    72.695934    62.956526    36.269018    55845.345   -308268.31 
    8810    1832.7189    165996.84    72.696667    72.696668    36.269384          120    62360.437    59748.623    2981.5908   -154.42615    3055.5982   -2869.3106    72.696667    62.957161    36.269384    41696.884   -308301.63 
    8820    1789.2874    166001.86    72.697399      72.6974    36.269749          120   -31259.111   -27663.794   -105730.41   -584.65342   -907.60638    3346.7937    72.697399    62.957795    36.269749   -54884.437   -308210.49 
    8830    1849.1048    166006.86     72.69813     72.69813    36.270114          120    20903.812    22049.328   -42586.653   -4153.5798    2837.0062   -682.48438     72.69813    62.958428    36.270114    122.16223   -308338.91 
    8840    1779.6666    166011.85    72.698859    72.698859    36.270478          120    90433.201    87590.965    37087.507   -1813.1995    5093.8355   -4971.5762    72.698859    62.959059    36.270478    71703.891   -308192.73 
    8850    1838.7746    166016.85    72.699588    72.699589    36.270841          120    11044.885    13443.668   -54876.923   -504.63277    814.76301    46.312221    72.699588    62.959691    36.270841   -10129.457   -308319.88 
    8860     1785.377    166021.83    72.700316    72.700316    36.271204          120    -27625.56   -24786.851   -99246.301   -4826.1177    1084.1078    2748.2697    72.700316    62.960321    36.271204   -50552.904   -308207.91 
    8870    1808.7577    166026.81    72.701042    72.701042    36.271567          120    70008.349    66520.807    12325.106    -3690.719    5796.4792   -3213.7788    72.701042     62.96095    36.271567    49618.087   -308258.77 
    8880    1809.6221    166031.78    72.701767    72.701768    36.271929          120    67172.466    65794.691    11205.432   -172.24308    3739.0045   -3436.5522    72.701767    62.961578    36.271929     48057.53   -308261.59 
    8890    1773.3505    166036.74    72.702492    72.702493     36.27229          120   -30316.438   -24362.361   -99481.481   -3513.0629    -282.9348    1688.9666    72.702492    62.962206     36.27229    -51386.76    -308186.1 
    8900    1825.7577     166041.7    72.703215    72.703216    36.272651          120     15089.63    13859.188   -52299.357   -4958.1445    4480.4794   -62.042855    72.703215    62.962832    36.272651   -7783.5131   -308299.09 
    8910    1756.1482    166046.64    72.703937    72.703938    36.273011          120    92353.044    85079.685    37816.712   -595.64084    6844.4232   -4019.1686    72.703937    62.963457    36.273011    71749.814   -308152.01 
    8920    1827.6052    166051.59    72.704659    72.704659    36.273371          120    17267.469    21119.959   -42591.757   -845.02919     1254.234   -2050.9077    72.704659    62.964082    36.273371   -1401.4431   -308305.11 
    8930    1757.6883    166056.53     72.70538     72.70538    36.273731          120   -31690.961   -25376.698   -103482.04   -4109.5941    1480.6066     1049.266     72.70538    62.964706    36.273731   -53516.565   -308158.12 
    8940    1806.8612    166061.45    72.706098    72.706099     36.27409          120    66416.058    59532.243    5145.8787   -1795.6874     7495.182   -1996.1349    72.706098    62.965329     36.27409     43698.06   -308263.52 
    8950    1786.7134    166066.38    72.706817    72.706817    36.274448          120    74492.356    69534.824    20021.658    217.85002    5225.5705   -4570.1292    72.706817    62.965951    36.274448    54682.946   -308221.83 
    8960    1772.3798     166071.3    72.707535    72.707536    36.274806          120   -26687.715   -17443.273   -93347.511   -2496.7087    242.77503   -1357.4897    72.707535    62.966573    36.274806   -45826.166   -308193.05 
    8970    1812.8407    166076.21    72.708252    72.708252    36.275164          120     7356.615    9369.6591   -61229.477   -2534.1623    5421.2995    370.52521    72.708252    62.967194    36.275164   -14834.401   -308280.02 
    8980       1755.5    166081.11    72.708967    72.708968    36.275521          120     93826.11    85070.589    37347.653   -425.80067    8203.8727   -4352.8821    72.708967    62.967813    36.275521    72081.451   -308158.53 
    8990    1829.6961    166086.02    72.709683    72.709683    36.275878          120    26692.555    30440.669   -32511.404   -1701.4948    2008.7603   -4444.4668    72.709683    62.968433    36.275878    8207.2736   -308316.83 
    9000    1759.0874    166090.91    72.710398    72.710398    36.276234          120    -35083.61   -24899.346   -104731.83   -2816.9661     1712.298    743.80705    72.710398    62.969052    36.276234   -54904.928   -308167.71 
    9010     1829.025     166095.8    72.711111    72.711111     36.27659          120    60198.248    56051.397   -1992.7263   -1170.7534    8861.3572   -1404.6783    72.711111     62.96967     36.27659    38085.639    -308316.8 
    9020    1792.5181    166100.69    72.711824    72.711824    36.276946          120    80005.547      78091.3    24052.714   -1240.3842    6266.2321   -4891.5554    72.711824    62.970287    36.276946     60716.52   -308239.69 
    9030    1810.8764    166105.57    72.712537    72.712537    36.277302          120   -22228.486   -10130.137   -86581.275   -2547.1403   -460.70288   -740.77987    72.712537    62.970904    36.277302   -39646.633   -308279.49 
    9040    1827.8833    166110.45    72.713248    72.713249    36.277657          120   -273.59131    2751.4599   -67021.315   -1240.1664    5931.5627    1883.3714    72.713248    62.971521    36.277657   -21514.482   -308316.46 
    9050    1791.4507    166115.32    72.713958    72.713959    36.278011          120    90401.808    86975.402    34466.563   -782.26421    10692.024   -2559.8623    72.713958    62.972136    36.278011    70614.591    -308239.5 
    9060    1853.0054    166120.19    72.714669    72.714669    36.278365          120    32792.119    41158.445   -24949.413   -1873.5248    2632.8238   -2196.7221    72.714669    62.972751    36.278365    16333.717   -308370.88 
    9070     1780.781    166125.05    72.715379    72.715379     36.27872          120   -36046.096   -27358.632   -103938.52   -753.59402    1316.9167    1884.0571    72.715379    62.973366     36.27872   -55781.081   -308218.99 
    9080    1847.4096    166129.91    72.716087    72.716088    36.279073          120    49908.568    49079.373   -8427.1068   -140.65825     11280.54    390.64684    72.716087    62.973979    36.279073    30186.944   -308361.42 
    9090    1796.6563    166134.76    72.716795    72.716795    36.279426          120    80417.926    84038.952    28562.819   -1135.6685    9083.0943   -1495.7995    72.716795    62.974592    36.279426    64339.899   -308254.92 
    9100    1818.0284    166139.61    72.717503    72.717503    36.279779          120   -15402.769   -5853.6894   -79820.608   -457.00999     487.9268    250.60087    72.717503    62.975205    36.279779   -33692.355   -308302.15 
    9110     1813.338    166144.45    72.718209     72.71821    36.280132          120   -9096.3434   -5229.7304   -72814.509    435.49656    6344.8664    1277.2343    72.718209    62.975817    36.280132   -29046.861   -308293.95 
    9120    1788.3685    166149.29    72.718915    72.718915    36.280484          120    82714.402    84600.369    33657.695   -283.03923    12394.157    326.71181    72.718915    62.976428    36.280484    66990.822   -308242.29 
    9130    1829.9326    166154.12     72.71962    72.719621    36.280836          120    41272.371    46629.354   -15695.989   -567.80887    5046.1721    839.61314     72.71962    62.977039    36.280836    24068.579   -308331.71 
    9140    1766.9445    166158.96    72.720325    72.720326    36.281188          120   -34837.764   -29404.408    -103799.2    269.84531    762.54622    761.25307    72.720325     62.97765    36.281188   -56013.792   -308199.37 
    9150    1831.0211    166163.78    72.721029    72.721029    36.281538          120    39324.289    42269.962   -15256.414     611.0346    9499.4167     665.9944    72.721029    62.978259    36.281538    22112.612   -308336.68 
    9160     1776.003     166168.6    72.721732    72.721732    36.281889          120    83852.726    85311.231     34919.84   -553.24576    10256.651    1902.2426    72.721732    62.978868    36.281889    68027.933   -308220.58 
    9170    1813.0481    166173.42    72.722435    72.722435     36.28224          120   -4727.1745   -2389.1913   -72456.987    19.894958    1163.8456    1314.9658    72.722435    62.979477     36.28224   -26524.451   -308300.29 
    9180    1800.0715    166178.23    72.723137    72.723137     36.28259          120   -12635.343   -10213.899   -81224.669    1077.0093    3082.6513   -100.03422    72.723137    62.980085     36.28259   -34691.303   -308273.84 
    9190    1787.1118    166183.03    72.723838    72.723838     36.28294          120    79509.219     80104.95    32267.952    -12.33982    10588.359    941.20543    72.723838    62.980691     36.28294    63960.707   -308247.13 
    9200    1829.3253    166187.84    72.724539    72.724539     36.28329          120    50945.903     51187.19   -4341.7815   -74.442554    6341.4823    1578.3742    72.724539    62.981298     36.28329    32597.104   -308337.59 
    9210    1766.4909    166192.64    72.725239     72.72524    36.283639          120   -27887.374    -28722.35   -106096.88     1387.721   -721.54966   -218.65468    72.725239    62.981905    36.283639   -54235.536   -308205.48 
    9220    1833.9451    166197.44    72.725939    72.725939    36.283988          120     35256.92     35018.86   -24478.234    1352.9338    6159.6239   -791.27488    72.725939    62.982511    36.283988    15265.849   -308349.87 
    9230    1771.7567    166202.23    72.726637    72.726638    36.284337          120    84713.314    86505.346    42539.212   -339.77914    9725.9809    205.92096    72.726637    62.983116    36.284337    71252.624   -308218.86 
    9240    1816.1098    166207.02    72.727337    72.727337    36.284686          120    5042.2037    3714.4672    -63932.63    711.63031    688.29604   -46.589799    72.727337    62.983722    36.284686   -18391.986   -308314.44 
    9250    1785.5133    166211.81    72.728035    72.728036    36.285034          120   -12253.037   -15711.097   -89899.627    2968.2003    682.01758   -1329.1461    72.728035    62.984327    36.285034    -39287.92   -308251.18 
    9260     1786.903    166216.59    72.728732    72.728733    36.285382          120     74316.07    76909.611    28844.171    466.24927    8809.6778   -1625.7969    72.728732     62.98493    36.285382    60023.284   -308255.02 
    9270    1810.1469    166221.37     72.72943     72.72943     36.28573          120    56149.688    58864.168    5707.3023   -537.15686    5099.8814   -1005.4391     72.72943    62.985534     36.28573    40240.386   -308305.89 
    9280    1755.0832    166226.15    72.730127    72.730128    36.286078          120   -23112.914   -28487.768   -104300.81    2244.3362   -1674.5292   -886.34067    72.730127    62.986138    36.286078   -51967.165   -308190.37 
    9290    1821.7876    166230.93    72.730823    72.730824    36.286425          120    29114.466    27834.292   -34509.082    2319.6389    5055.4305   -2730.7495    72.730823    62.986741    36.286425    7479.8922   -308333.18 
    9300      1748.14     166235.7    72.731519    72.731519    36.286772          120    84588.041    90626.795    41975.583    360.86065    8567.5099   -2938.8623    72.731519    62.987344    36.286772    72396.806   -308177.76 
    9310    1813.3659    166240.47    72.732215    72.732215    36.287119          120    11824.127    10050.706   -55269.948    185.83957    458.77164   -891.49334    72.732215    62.987946    36.287119   -11131.705    -308317.6 
    9320    1763.8565    166245.24     72.73291    72.732911    36.287466          120   -15864.345   -23159.507   -94714.767    1535.6944    103.30694   -1763.4803     72.73291    62.988548    36.287466    -44579.54   -308213.26 
    9330    1790.9259    166249.99    72.733604    72.733605    36.287812          120    69716.513    73425.458     18340.32     2131.906    8472.2968   -3827.2248    72.733604    62.989149    36.287812    53827.431   -308271.36 
    9340    1801.3142    166254.75    72.734298    72.734299    36.288159          120    60796.214    65662.569    9767.8145    1011.9382    5411.4996   -2112.4247    72.734298    62.989751    36.288159    45408.866   -308294.02 
    9350    1769.7452    166259.51    72.734992    72.734993    36.288505          120    -22049.96   -29605.652   -99028.517   -461.26764   -1895.6902   -395.37373    72.734992    62.990352    36.288505   -50228.043   -308227.82 
    9360    1829.6756    166264.26    72.735685    72.735685    36.288851          120    22006.606     17494.03   -46211.802    1161.4524    4430.7676   -2615.4865    72.735685    62.990951    36.288851   -2237.0553   -308355.62 
    9370    1770.3068    166269.01    72.736376    72.736377    36.289196          120    84791.714     90625.31    37079.577    2780.1331    8334.3937   -2870.4274    72.736376     62.99155    36.289196      70832.2   -308229.57 
    9380    1840.4837    166273.75    72.737069    72.737069    36.289541          120      15534.6    15916.694   -46584.415    557.07684    1749.2275   -725.13005    72.737069     62.99215    36.289541   -5044.3734   -308379.58 
    9390    1781.2802    166278.49     72.73776     72.73776    36.289886          120   -21313.102   -30632.632   -98798.229   -962.99031    76.451397   -894.38803     72.73776    62.992748    36.289886   -50247.988    -308254.6 
    9400    1826.4875    166283.22    72.738449     72.73845     36.29023          120    65534.255     64098.03    8280.7125    1913.6857    6420.7399   -2143.7787    72.738449    62.993346     36.29023    45970.999   -308351.18 
    9410    1809.1061    166287.95    72.739139    72.739139    36.290574          120    64806.488    70322.472    15044.171    2440.9706    5660.9354   -985.92147    72.739139    62.993943    36.290574    50057.711   -308315.33 
    9420    1794.0218    166292.68    72.739828    72.739829    36.290918          120   -22490.456   -25800.428   -93679.489   -123.03231    281.99433    218.75044    72.739828     62.99454    36.290918   -47323.457   -308284.77 
    9430    1829.7119     166297.4    72.740516    72.740517    36.291261          120    15589.353     6529.887   -55236.398   -129.36739    2999.3229   -853.85389    72.740516    62.995135    36.291261   -11039.053    -308361.7 
    9440    1774.2647    166302.11    72.741203    72.741203    36.291604          120     86501.92      87425.9    37127.245    1448.7519     6092.231   -556.28605    72.741203     62.99573    36.291604    70351.688   -308244.96 
    9450    1834.7823    166306.82     72.74189    72.741891    36.291946          120     20476.21    24627.496   -36561.095    1692.1786    3416.2517    1061.0189     72.74189    62.996325    36.291946    2847.5369   -308374.74 
    9460    1772.0458    166311.53    72.742576    72.742577    36.292289          120    -24982.74   -32650.358   -101198.41    469.56339     2149.933    966.34552    72.742576     62.99692    36.292289   -52943.836   -308242.72 
    9470     1819.036    166316.23    72.743261    72.743262    36.292631          120    62119.217    55672.624    2384.2028   -321.92261     4480.776   -185.63183    72.743261    62.997513    36.292631    40058.681   -308343.67 
    9480    1792.6926    166320.92    72.743946    72.743947    36.292972          120    70471.629    74332.131    23128.218    954.13976    5185.1314    972.50853    72.743946    62.998106    36.292972    55977.326   -308288.65 
    9490    1789.6643    166325.62    72.744631    72.744631    36.293314          120   -19233.797   -19981.658    -87210.63    2048.3204    3912.2241    3114.1686    72.744631    62.998699    36.293314   -42142.028   -308283.43 
    9500    1811.1613    166330.31    72.745314    72.745315    36.293655          120     9116.013    440.20079   -62020.035    349.74065     3645.808     959.5389    72.745314    62.999291    36.293655    -17487.94   -308330.48 
    9510    1766.7449    166334.99    72.745997    72.745997    36.293995          120    86143.978    85081.018    37390.791   -1.3494431    4885.3835   -574.69854    72.745997    62.999882    36.293995    69538.596   -308236.73 
    9520    1823.5558    166339.67     72.74668     72.74668    36.294336          120    28147.108    31236.464   -26061.066    2202.0373    5060.6987    3161.7744     72.74668    63.000473    36.294336    11107.502   -308358.94 
    9530     1758.803    166344.36    72.747362    72.747363    36.294677          120   -27453.334   -33401.904    -101614.2    1350.1839     3903.689    3572.8786    72.747362    63.001064    36.294677    -54156.48   -308222.75 
    9540    1815.7609    166349.03    72.748043    72.748044    36.295016          120    54285.234    49768.198   -5416.5625   -23.495108    3760.6226   -1214.1426    72.748043    63.001654    36.295016    32878.957   -308344.65 
    9550    1780.4495     166353.7    72.748724    72.748724    36.295356          120    74609.713    78080.361    27505.595    2703.4212    4671.3712   -21.651669    72.748724    63.002244    36.295356    60065.223   -308270.67 
    9560      1787.45    166358.37    72.749405    72.749405    36.295696          120    -14148.96   -16375.765    -80896.17    2260.8669    4193.6898    4596.1432    72.749405    63.002833    36.295696   -37140.298   -308286.93 
    9570    1801.3955    166363.03    72.750084    72.750085    36.296035          120    489.92998   -5961.4466   -70731.397    -1005.336    2957.9846    1407.4082    72.750084    63.003422    36.296035   -25400.971   -308317.56 
    9580    1760.6985    166367.68    72.750763    72.750763    36.296373          120    81690.674    85040.758    31211.426    1835.3874    3796.4219   -2485.9824    72.750763    63.004009    36.296373    65980.953   -308232.04 
    9590    1814.8827    166372.34    72.751441    72.751442    36.296712          120    35194.357    38387.062   -19634.011    3809.9103    3770.8623    1352.1276    72.751441    63.004597    36.296712     17982.47   -308348.38 
    9600    1745.6388    166376.99    72.752119     72.75212     36.29705          120   -28633.093   -37065.112   -102870.86    -361.4458    2853.9761    4635.8272    72.752119    63.005184     36.29705   -56189.688   -308202.21 
    9610    1811.2871    166381.63    72.752796    72.752796    36.297387          120     44337.69    44870.774    -15954.03    -976.8696    3310.7653   -549.42693    72.752796     63.00577    36.297387    24418.144   -308342.49 
    9620    1760.1261    166386.27    72.753472    72.753472    36.297725          120    75209.693    85066.024    27840.819    2292.3471    3360.9554   -2353.3255    72.753472    63.006356    36.297725    62705.512   -308234.44 
    9630    1791.6232    166390.91    72.754148    72.754149    36.298062          120   -8223.0528   -13267.414    -73921.48    2113.7937    3038.1705    3039.8613    72.754148    63.006941    36.298062   -31803.982    -308302.2 
    9640    1787.1703    166395.54    72.754823    72.754824    36.298399          120   -7077.4023   -13779.893   -77461.363    -1134.309    3649.0239    3372.0335    72.754823    63.007526    36.298399   -32772.886   -308293.69 
    9650    1768.2985    166400.16    72.755497    72.755497    36.298735          120    74552.562    85926.971    25386.338   -1745.9141    3814.2937   -1851.3413    72.755497    63.008109    36.298735     61955.29   -308253.49 
    9660    1819.4647    166404.78     72.75617    72.756171    36.299071          120    40418.228    46509.531   -12411.926     782.6726    3285.0784    -1034.597     72.75617    63.008692    36.299071    24838.611   -308362.88 
    9670    1753.6785     166409.4    72.756844    72.756844    36.299407          120    -28733.29   -39308.361   -101737.58    1771.3502    3748.6156    4197.8415    72.756844    63.009275    36.299407   -56593.078   -308224.25 
    9680    1829.3197    166414.01    72.757515    72.757516    36.299742          120    34558.093    38173.818   -24321.015   -2027.1438    4662.2798     1447.917    72.757515    63.009857    36.299742    16136.965   -308385.31 
    9690    1767.6099    166418.62    72.758186    72.758187    36.300077          120    75636.332     89938.15    29308.939   -3507.2787    3884.4687   -2767.6322    72.758186    63.010438    36.300077     64961.14   -308254.34 
    9700    1814.8948    166423.22    72.758857    72.758858    36.300412          120   -1845.1347   -5718.9211   -68068.576    1506.6058    3141.1431    1745.0114    72.758857    63.011019    36.300412   -25210.877   -308355.93 
    9710    1787.9713    166427.82    72.759527    72.759528    36.300746          120   -13506.927   -20541.067   -82684.114    1927.9249    4621.4069    4259.0209    72.759527      63.0116    36.300746   -38910.703   -308299.51 
    9720    1789.7413    166432.41    72.760196    72.760196    36.301079          120    70392.727    81768.515    22076.491    -4465.688    4700.5928   -1589.7677    72.760196    63.012178    36.301079    58079.244   -308303.94 
    9730    1812.3233    166436.99    72.760864    72.760865    36.301413          120    48743.543    55144.793   -7383.4479   -2891.3197    2976.4927   -1464.5406    72.760864    63.012758    36.301413    32168.296    -308353.1 
    9740    1761.8637    166441.58    72.761533    72.761533    36.301746          120   -27222.786   -36458.589    -100733.8    3581.6951    3283.3696     3873.617    72.761533    63.013336    36.301746   -54805.057   -308246.94 
    9750    1822.1586    166446.16    72.762199      72.7622    36.302079          120    27275.347    28997.929   -29584.754   -1096.6953    4869.5595     1598.416    72.762199    63.013914    36.302079    8896.1738   -308375.93 
    9760    1756.2657    166450.73    72.762865    72.762866    36.302411          120    80285.542    90208.336    31721.602   -6007.8593    3416.6058      -2845.9    72.762865    63.014491    36.302411     67405.16   -308236.73 
    9770    1812.9049     166455.3    72.763532    72.763532    36.302744          120    6873.6732    3162.6912   -62746.638    487.17385    2038.2775   -77.022081    72.763532    63.015068    36.302744   -17570.091   -308358.03 
    9780    1769.1927    166459.87    72.764197    72.764198    36.303076          120    -18628.75   -24466.126   -86631.715    2758.7973    3279.2686    3189.4352    72.764197    63.015644    36.303076   -43242.197   -308266.17 
    9790    1787.4185    166464.43    72.764861    72.764862    36.303407          120    66886.825     74079.21    19155.384   -4813.8136    3567.0548   -552.02562    72.764861    63.016219    36.303407    53373.806   -308305.56 
    9800    1797.1993    166468.98    72.765525    72.765526    36.303738          120    57726.069    59655.553   -1685.5512   -3824.3431    1746.6094   -2848.4413    72.765525    63.016794    36.303738    38565.357   -308327.21 
    9810    1758.6724    166473.54    72.766189     72.76619     36.30407          120   -25395.445   -32574.531   -99187.475    3152.3971    1774.1478    171.96566    72.766189    63.017369     36.30407   -52385.817   -308247.03 
    9820    1807.0542    166478.09    72.766852    72.766852      36.3044          120    18029.316    20433.886   -37473.932   -593.43151    3413.2298    2181.7032    72.766852    63.017943      36.3044     329.7566   -308350.85 
    9830    1748.5269    166482.63    72.767513    72.767514     36.30473          120    82200.299     87477.66    32253.963   -5264.5908    2703.9783   -1156.7591    72.767513    63.018516     36.30473    67310.641   -308227.66 
    9840     1796.616    166487.17    72.768175    72.768176    36.305061          120    13781.624    8609.8352   -55033.919    206.74015    1943.2973   -2666.2151    72.768175    63.019089    36.305061    -10880.82   -308331.36 
    9850    1747.4928    166491.71    72.768836    72.768837     36.30539          120    -25205.36   -27364.587   -92491.206    2985.1292    2962.0248    860.88643    72.768836    63.019661     36.30539   -48353.718    -308228.4 
    9860    1771.7295    166496.23    72.769495    72.769496    36.305719          120    60740.222    67037.868    11536.889   -2851.1031    3269.4206    1985.7913    72.769495    63.020232    36.305719    46438.327   -308280.55 
    9870    1767.2284    166500.76    72.770155    72.770155    36.306048          120     62915.66    62241.453    6356.2822   -2531.2918    2662.4206   -1442.6198    72.770155    63.020803    36.306048    43837.798   -308272.06 
    9880    1741.4932    166505.28    72.770814    72.770814    36.306377          120   -23742.846   -30543.396   -96401.245    3291.3567    2685.5294   -2169.5179    72.770814    63.021374    36.306377   -50229.162    -308218.3 
    9890    1787.2792    166509.79    72.771471    72.771472    36.306705          120    10920.949    12840.554   -49351.859    1248.6871    2702.3431    2207.6607    72.771471    63.021943    36.306705   -8530.1187   -308316.24 
    9900    1731.8501     166514.3    72.772127    72.772128    36.307032          120    80777.718    85923.128    32379.828   -2642.6799    2459.0421    1472.5285    72.772127    63.022512    36.307032    66360.225   -308198.93 
    9910    1795.9134     166518.8    72.772784    72.772784     36.30736          120    19086.297    13063.972   -45072.993    632.07775    2507.1978   -1911.2243    72.772784     63.02308     36.30736   -4307.5748   -308335.54 
    9920     1743.039     166523.3    72.773439     72.77344    36.307687          120   -26436.452   -32796.566    -99150.65    4295.0862    2452.9252   -155.63152    72.773439    63.023648    36.307687   -52794.556   -308224.05 
    9930    1784.0509    166527.79    72.774093    72.774094    36.308013          120    55216.061    60886.078    2032.1952   -20.557385    1626.0917    3166.6203    72.774093    63.024214    36.308013    39378.111   -308311.59 
    9940    1775.5245    166532.28    72.774747    72.774747    36.308339          120    64867.811    66447.726    13234.168   -2104.6654    1685.8426    747.45415    72.774747     63.02478    36.308339    48183.235   -308293.42 
    9950    1761.4671    166536.76      72.7754    72.775401    36.308665          120   -19916.111   -30162.295   -91438.085    3627.2439    2197.3035   -393.55184      72.7754    63.025346    36.308665   -47172.164   -308264.59 
    9960    1798.4282    166541.24    72.776052    72.776052     36.30899          120    5735.9792    5066.9669   -60468.674    3669.8105    1207.0171    2468.0066    72.776052     63.02591     36.30899   -16555.243   -308343.78 
    9970    1746.2089     166545.7    72.776702    72.776703    36.309315          120    78670.711    85752.817    29000.221    -2004.836    1000.0737    2495.4456    72.776702    63.026473    36.309315    64474.583   -308232.99 
    9980    1808.6661    166550.17    72.777353    72.777353    36.309639          120    24628.403    19016.617    -35168.09    584.00074    1439.1122    1896.8606    72.777353    63.027037    36.309639    2825.6436   -308366.53 
    9990    1741.4414    166554.63    72.778002    72.778003    36.309963          120   -28279.665   -36565.301   -101275.37    5229.3847    841.73323    2014.9184    72.778002    63.027599    36.309963   -55373.444   -308224.62 
   10000    1799.4566    166559.08     72.77865    72.778651    36.310286          120    50047.882    55482.727   -8453.5942    100.97365    979.79393    1861.0778     72.77865     63.02816    36.310286    32359.005   -308348.11 
Loop time of 3796.88 on 1 procs for 10000 steps with 15616 atoms

Performance: 0.023 ns/day, 1054.688 hours/ns, 2.634 timesteps/s
100.0% CPU use with 1 MPI tasks x no OpenMP threads

MPI task timing breakdown:
Section |  min time  |  avg time  |  max time  |%varavg| %total
---------------------------------------------------------------
Pair    | 3268.8     | 3268.8     | 3268.8     |   0.0 | 86.09
Bond    | 0.38778    | 0.38778    | 0.38778    |   0.0 |  0.01
Kspace  | 138.59     | 138.59     | 138.59     |   0.0 |  3.65
Neigh   | 305.71     | 305.71     | 305.71     |   0.0 |  8.05
Comm    | 3.9212     | 3.9212     | 3.9212     |   0.0 |  0.10
Output  | 0.1301     | 0.1301     | 0.1301     |   0.0 |  0.00
Modify  | 78.125     | 78.125     | 78.125     |   0.0 |  2.06
Other   |            | 1.227      |            |       |  0.03

Nlocal:    15616 ave 15616 max 15616 min
Histogram: 1 0 0 0 0 0 0 0 0 0
Nghost:    48610 ave 48610 max 48610 min
Histogram: 1 0 0 0 0 0 0 0 0 0
Neighs:    1.09466e+07 ave 1.09466e+07 max 1.09466e+07 min
Histogram: 1 0 0 0 0 0 0 0 0 0

Total # of neighbors = 10946634
Ave neighs/atom = 700.988
Ave special neighs/atom = 0.0983607
Neighbor list builds = 822
Dangerous builds therthermo		0
reset_timestep	0
fix		2 all ave/time 1 1 500 c_thermo_temp c_thermo_pe c_thermo_press v_myVol v_myCella v_myCellb v_myCellc v_myCellgamma file data/current_run/cp_rawTemp${probeTemp}.dat # Potential energy, parameters, volume
fix		2 all ave/time 1 1 500 c_thermo_temp c_thermo_pe c_thermo_press v_myVol v_myCella v_myCellb v_myCellc v_myCellgamma file data/current_run/cp_rawTemp1800.dat 
run 		100000
PPPM initialization ...
  using 12-bit tables for long-range coulomb (../kspace.cpp:321)
  G vector (1/distance) = 0.202267
  grid = 36 50 24
  stencil order = 5
  estimated absolute RMS force accuracy = 0.000998887
  estimated relative force accuracy = 6.93688e-05
  using double precision FFTs
  3d grid and FFT values/proc = 65395 43200
Per MPI rank memory allocation (min/avg/max) = 168.8 | 168.8 | 168.8 Mbytes
Step Temp Volume Cella Cellb Cellc CellGamma Pxx Pyy Pzz Pxy Pxz Pyz Lx Ly Lz Press PotEng 
       0    1799.4566    166559.08     72.77865    72.778651    36.310286          120    50042.952    55477.788   -8453.9689    100.79269    979.75492    1861.1398     72.77865     63.02816    36.310286    32355.591   -308348.17 
  100000    1807.1914    169456.56    73.198248    73.198249     36.51963          120    19607.185    15381.313   -47722.854   -201.66699    5515.3966   -267.63298    73.198248    63.391543     36.51963   -4244.7852   -308369.37 
Loop time of 41202.4 on 1 procs for 100000 steps with 15616 atoms

Performance: 0.021 ns/day, 1144.511 hours/ns, 2.427 timesteps/s
86.7% CPU use with 1 MPI tasks x no OpenMP threads

MPI task timing breakdown:
Section |  min time  |  avg time  |  max time  |%varavg| %total
---------------------------------------------------------------
Pair    | 34961      | 34961      | 34961      |   0.0 | 84.85
Bond    | 3.8698     | 3.8698     | 3.8698     |   0.0 |  0.01
Kspace  | 1374.7     | 1374.7     | 1374.7     |   0.0 |  3.34
Neigh   | 3105.3     | 3105.3     | 3105.3     |   0.0 |  7.54
Comm    | 38.94      | 38.94      | 38.94      |   0.0 |  0.09
Output  | 0.00012493 | 0.00012493 | 0.00012493 |   0.0 |  0.00
Modify  | 1706.5     | 1706.5     | 1706.5     |   0.0 |  4.14
Other   |            | 12.2       |            |       |  0.03

Nlocal:    15616 ave 15616 max 15616 min
Histogram: 1 0 0 0 0 0 0 0 0 0
Nghost:    48151 ave 48151 max 48151 min
Histogram: 1 0 0 0 0 0 0 0 0 0
Neighs:    1.07538e+07 ave 1.07538e+07 max 1.07538e+07 min
Histogram: 1 0 0 0 0 0 0 0 0 0

Total # of neighbors = 10753843
Ave neighs/atom = 688.643
Ave special neighs/atom = 0.0983607
Neighbor list builds = 8415
Dangerous builds = 0
unfix		2
variable	probeTemp delete

print		" "
 
print		"All done!"
All done!
Total wall time: 12:33:25

