LAMMPS (22 Aug 2018)
  using 1 OpenMP thread(s) per MPI task
# Fin dminimud floating point parameter in input script or data file (../fix_nh.cpp:132)energy for Beryl

#----- Initialize Simulation -----
clear
  using 1 OpenMP thread(s) per MPI task
units 		metal
boundary 	p p p
atom_style 	full
bond_style	none
variable	etol equal 1e-25
variable 	ftol equal 1e-25
variable 	maxiter equal 5000
variable 	maxeval equal 10000
variable	probeTemp equal 10

#----- Create Atoms -----
read_data 	beryl.mod
  triclinic box = (0 0 0) to (9.208 7.97436 18.376) with tilt (-4.604 0 0)
  1 by 1 by 1 MPI processor grid
  reading atoms ...
  116 atoms
  0 = max # of 1-2 neighbors
  0 = max # of 1-3 neighbors
  0 = max # of 1-4 neighbors
  1 = max # of special neighbors
replicate 	8 8 2
  triclinic box = (0 0 0) to (73.664 63.7949 36.752) with tilt (-36.832 0 0)
  1 by 1 by 1 MPI processor grid
  14848 atoms
  0 = max # of 1-2 neighbors
  0 = max # of 1-3 neighbors
  0 = max # of 1-4 neighbors
  1 = max # of special neighbors
  Time spent = 0.0102849 secs

#----- Define Interatomic Potential -----
include 	potential_main.mod
kspace_style 	pppm 1.0e-4

# Neighbor Style
neighbor	0.3 bin
neigh_modify	delay 0 every 1 check yes

# Minimization style
min_style	cg

# Setup Output
thermo		100
thermo_style	custom	step temp vol cella cellb cellc cellgamma pxx pyy pzz pxy pxz pyz lx ly lz press pe #c_eatoms
thermo_modify	norm no
variable 	myVol equal vol
variable	myCella equal cella
variable	myCellb equal cellb
variable	myCellc equal cellc
variable	myCellgamma equal cellgamma
include 	potential_beryl.mod
# Potential Paramters
pair_style 	hybrid/overlay morse 5.5 buck 5.5 lj/cut/coul/long 5.5 15.0
pair_coeff    1    1 morse     		  0 	       0           0  # Be Be
pair_coeff    1    1 buck                 0            1           -201.0
pair_coeff    1    1 lj/cut/coul/long	  10120.	0.413
pair_coeff    1    2 morse     		  0 	       0           0  # Be Al
pair_coeff    1    2 buck                 0            1           0
pair_coeff    1    2 lj/cut/coul/long	  0	       0
pair_coeff    1    3 morse     		  0 	       0           0  # Al Si
pair_coeff    1    3 buck                 0            1           0
pair_coeff    1    3 lj/cut/coul/long	  0	       0
pair_coeff    1    4 morse 		  0.239919     2.527420    1.815405	#Be O
pair_coeff    1    4 buck                 0.000000     1.000000   -46.00000
pair_coeff    1    4 lj/cut/coul/long     529.000      0.528
pair_coeff    2    2 morse     		  0 	       0           0  # Al Al
pair_coeff    2    2 buck                 0            1           -492.
pair_coeff    2    2 lj/cut/coul/long	  60423		0.356
pair_coeff    2    3 morse     		  0 	       0           0  # Al si
pair_coeff    2    3 buck                 0            1           0
pair_coeff    2    3 lj/cut/coul/long	  0	       0
pair_coeff    2    4 morse 		  0.361581     1.900442    2.164818	#Al O
pair_coeff    2    4 buck                 0.000000     1.000000   -71.5
pair_coeff    2    4 lj/cut/coul/long     1420.0	0.482
pair_coeff    3    3 morse     		  0 	       0           0  # Si Si
pair_coeff    3    3 buck                 0            1           -282.
pair_coeff    3    3 lj/cut/coul/long	  19730		0.391
pair_coeff    3    4 morse 		  0.340554     2.006700    2.100000	#Si O
pair_coeff    3    4 buck                 0.000000     1.000000   -60.5
pair_coeff    3    4 lj/cut/coul/long     916.		0.504
pair_coeff    4    4 morse     		  0.042395     1.379316    3.618701  # O O
pair_coeff    4    4 buck                 0.000000     1.000000   -16.7
pair_coeff    4    4 lj/cut/coul/long	  3.16		1.05
#------ Define Settings -----

# ----- Run Minimization -----
#minimize	1e-25 1e-25 5000 10000 # Performs actual minimization

#include		calcLatticeParams.mod

reset_timestep	0
timestep	0.0005
velocity       	all create ${probeTemp} 87287 loop geom
velocity       	all create 10 87287 loop geom
#run		10000 # Warmup
#thermo		0
reset_timestep	0
run 		100000
WARNING: No fixes defined, atoms won't move (../verlet.cpp:55)
PPPM initialization ...
WARNING: System is not charge neutral, net charge = -0.2048 (../kspace.cpp:302)
  using 12-bit tables for long-range coulomb (../kspace.cpp:321)
  G vector (1/distance) = 0.201681
  grid = 36 50 24
  stencil order = 5
  estimated absolute RMS force accuracy = 0.00105653
  estimated relative force accuracy = 7.33721e-05
  using double precision FFTs
  3d grid and FFT values/proc = 65395 43200
Neighbor list info ...
  update every 1 steps, delay 0 steps, check yes
  max neighbors/atom: 2000, page size: 100000
  master list distance cutoff = 15.3
  ghost atom cutoff = 15.3
  binsize = 7.65, bins = 15 9 5
  3 neighbor lists, perpetual/occasional/extra = 3 0 0
  (1) pair morse, perpetual
      attributes: half, newton on
      pair build: half/bin/newton/tri
      stencil: half/bin/3d/newton/tri
      bin: standard
  (2) pair buck, perpetual, copy from (1)
      attributes: half, newton on
      pair build: copy
      stencil: none
      bin: none
  (3) pair lj/cut/coul/long, perpetual, copy from (1)
      attributes: half, newton on
      pair build: copy
      stencil: none
      bin: none
Per MPI rank memory allocation (min/avg/max) = 145.7 | 145.7 | 145.7 Mbytes
Step Temp Volume Cella Cellb Cellc CellGamma Pxx Pyy Pzz Pxy Pxz Pyz Lx Ly Lz Press PotEng 
       0           10    172711.88       73.664    73.664001       36.752          120   -204217.99   -204209.08   -275754.38    1.0250408   0.54269768   0.23015431       73.664    63.794896       36.752   -228060.48   -308813.26 
     100           10    172711.88       73.664    73.664001       36.752          120   -204217.99   -204209.08   -275754.38    1.0250408   0.54269768   0.23015431       73.664    63.794896       36.752   -228060.48   -308813.26 
     200           10    172711.88       73.664    73.664001       36.752          120   -204217.99   -204209.08   -275754.38    1.0250408   0.54269768   0.23015431       73.664    63.794896       36.752   -228060.48   -308813.26 
     300           10    172711.88       73.664    73.664001       36.752          120   -204217.99   -204209.08   -275754.38    1.0250408   0.54269768   0.23015431       73.664    63.794896       36.752   -228060.48   -308813.26 
     400           10    172711.88       73.664    73.664001       36.752          120   -204217.99   -204209.08   -275754.38    1.0250408   0.54269768   0.23015431       73.664    63.794896       36.752   -228060.48   -308813.26 
     500           10    172711.88       73.664    73.664001       36.752          120   -204217.99   -204209.08   -275754.38    1.0250408   0.54269768   0.23015431       73.664    63.794896       36.752   -228060.48   -308813.26 
     600           10    172711.88       73.664    73.664001       36.752          120   -204217.99   -204209.08   -275754.38    1.0250408   0.54269768   0.23015431       73.664    63.794896       36.752   -228060.48   -308813.26 
     700           10    172711.88       73.664    73.664001       36.752          120   -204217.99   -204209.08   -275754.38    1.0250408   0.54269768   0.23015431       73.664    63.794896       36.752   -228060.48   -308813.26 
     800           10    172711.88       73.664    73.664001       36.752          120   -204217.99   -204209.08   -275754.38    1.0250408   0.54269768   0.23015431       73.664    63.794896       36.752   -228060.48   -308813.26 
     900           10    172711.88       73.664    73.664001       36.752          120   -204217.99   -204209.08   -275754.38    1.0250408   0.54269768   0.23015431       73.664    63.794896       36.752   -228060.48   -308813.26 
    1000           10    172711.88       73.664    73.664001       36.752          120   -204217.99   -204209.08   -275754.38    1.0250408   0.54269768   0.23015431       73.664    63.794896       36.752   -228060.48   -308813.26 
    1100           10    172711.88       73.664    73.664001       36.752          120   -204217.99   -204209.08   -275754.38    1.0250408   0.54269768   0.23015431       73.664    63.794896       36.752   -228060.48   -308813.26 
    1200           10    172711.88       73.664    73.664001       36.752          120   -204217.99   -204209.08   -275754.38    1.0250408   0.54269768   0.23015431       73.664    63.794896       36.752   -228060.48   -308813.26 
    1300           10    172711.88       73.664    73.664001       36.752          120   -204217.99   -204209.08   -275754.38    1.0250408   0.54269768   0.23015431       73.664    63.794896       36.752   -228060.48   -308813.26 
    1400           10    172711.88       73.664    73.664001       36.752          120   -204217.99   -204209.08   -275754.38    1.0250408   0.54269768   0.23015431       73.664    63.794896       36.752   -228060.48   -308813.26 
    1500           10    172711.88       73.664    73.664001       36.752          120   -204217.99   -204209.08   -275754.38    1.0250408   0.54269768   0.23015431       73.664    63.794896       36.752   -228060.48   -308813.26 
    1600           10    172711.88       73.664    73.664001       36.752          120   -204217.99   -204209.08   -275754.38    1.0250408   0.54269768   0.23015431       73.664    63.794896       36.752   -228060.48   -308813.26 
    1700           10    172711.88       73.664    73.664001       36.752          120   -204217.99   -204209.08   -275754.38    1.0250408   0.54269768   0.23015431       73.664    63.794896       36.752   -228060.48   -308813.26 
    1800           10    172711.88       73.664    73.664001       36.752          120   -204217.99   -204209.08   -275754.38    1.0250408   0.54269768   0.23015431       73.664    63.794896       36.752   -228060.48   -308813.26 
    1900           10    172711.88       73.664    73.664001       36.752          120   -204217.99   -204209.08   -275754.38    1.0250408   0.54269768   0.23015431       73.664    63.794896       36.752   -228060.48   -308813.26 
    2000           10    172711.88       73.664    73.664001       36.752          120   -204217.99   -204209.08   -275754.38    1.0250408   0.54269768   0.23015431       73.664    63.794896       36.752   -228060.48   -308813.26 
    2100           10    172711.88       73.664    73.664001       36.752          120   -204217.99   -204209.08   -275754.38    1.0250408   0.54269768   0.23015431       73.664    63.794896       36.752   -228060.48   -308813.26 
    2200           10    172711.88       73.664    73.664001       36.752          120   -204217.99   -204209.08   -275754.38    1.0250408   0.54269768   0.23015431       73.664    63.794896       36.752   -228060.48   -308813.26 
    2300           10    172711.88       73.664    73.664001       36.752          120   -204217.99   -204209.08   -275754.38    1.0250408   0.54269768   0.23015431       73.664    63.794896       36.752   -228060.48   -308813.26 
    2400           10    172711.88       73.664    73.664001       36.752          120   -204217.99   -204209.08   -275754.38    1.0250408   0.54269768   0.23015431       73.664    63.794896       36.752   -228060.48   -308813.26 
    2500           10    172711.88       73.664    73.664001       36.752          120   -204217.99   -204209.08   -275754.38    1.0250408   0.54269768   0.23015431       73.664    63.794896       36.752   -228060.48   -308813.26 
    2600           10    172711.88       73.664    73.664001       36.752          120   -204217.99   -204209.08   -275754.38    1.0250408   0.54269768   0.23015431       73.664    63.794896       36.752   -228060.48   -308813.26 
    2700           10    172711.88       73.664    73.664001       36.752          120   -204217.99   -204209.08   -275754.38    1.0250408   0.54269768   0.23015431       73.664    63.794896       36.752   -228060.48   -308813.26 
    2800           10    172711.88       73.664    73.664001       36.752          120   -204217.99   -204209.08   -275754.38    1.0250408   0.54269768   0.23015431       73.664    63.794896       36.752   -228060.48   -308813.26 
    2900           10    172711.88       73.664    73.664001       36.752          120   -204217.99   -204209.08   -275754.38    1.0250408   0.54269768   0.23015431       73.664    63.794896       36.752   -228060.48   -308813.26 
    3000           10    172711.88       73.664    73.664001       36.752          120   -204217.99   -204209.08   -275754.38    1.0250408   0.54269768   0.23015431       73.664    63.794896       36.752   -228060.48   -308813.26 
    3100           10    172711.88       73.664    73.664001       36.752          120   -204217.99   -204209.08   -275754.38    1.0250408   0.54269768   0.23015431       73.664    63.794896       36.752   -228060.48   -308813.26 
    3200           10    172711.88       73.664    73.664001       36.752          120   -204217.99   -204209.08   -275754.38    1.0250408   0.54269768   0.23015431       73.664    63.794896       36.752   -228060.48   -308813.26 
    3300           10    172711.88       73.664    73.664001       36.752          120   -204217.99   -204209.08   -275754.38    1.0250408   0.54269768   0.23015431       73.664    63.794896       36.752   -228060.48   -308813.26 
    3400           10    172711.88       73.664    73.664001       36.752          120   -204217.99   -204209.08   -275754.38    1.0250408   0.54269768   0.23015431       73.664    63.794896       36.752   -228060.48   -308813.26 
    3500           10    172711.88       73.664    73.664001       36.752          120   -204217.99   -204209.08   -275754.38    1.0250408   0.54269768   0.23015431       73.664    63.794896       36.752   -228060.48   -308813.26 
    3600           10    172711.88       73.664    73.664001       36.752          120   -204217.99   -204209.08   -275754.38    1.0250408   0.54269768   0.23015431       73.664    63.794896       36.752   -228060.48   -308813.26 
    3700           10    172711.88       73.664    73.664001       36.752          120   -204217.99   -204209.08   -275754.38    1.0250408   0.54269768   0.23015431       73.664    63.794896       36.752   -228060.48   -308813.26 
    3800           10    172711.88       73.664    73.664001       36.752          120   -204217.99   -204209.08   -275754.38    1.0250408   0.54269768   0.23015431       73.664    63.794896       36.752   -228060.48   -308813.26 
    3900           10    172711.88       73.664    73.664001       36.752          120   -204217.99   -204209.08   -275754.38    1.0250408   0.54269768   0.23015431       73.664    63.794896       36.752   -228060.48   -308813.26 
    4000           10    172711.88       73.664    73.664001       36.752          120   -204217.99   -204209.08   -275754.38    1.0250408   0.54269768   0.23015431       73.664    63.794896       36.752   -228060.48   -308813.26 
    4100           10    172711.88       73.664    73.664001       36.752          120   -204217.99   -204209.08   -275754.38    1.0250408   0.54269768   0.23015431       73.664    63.794896       36.752   -228060.48   -308813.26 
    4200           10    172711.88       73.664    73.664001       36.752          120   -204217.99   -204209.08   -275754.38    1.0250408   0.54269768   0.23015431       73.664    63.794896       36.752   -228060.48   -308813.26 
    4300           10    172711.88       73.664    73.664001       36.752          120   -204217.99   -204209.08   -275754.38    1.0250408   0.54269768   0.23015431       73.664    63.794896       36.752   -228060.48   -308813.26 
    4400           10    172711.88       73.664    73.664001       36.752          120   -204217.99   -204209.08   -275754.38    1.0250408   0.54269768   0.23015431       73.664    63.794896       36.752   -228060.48   -308813.26 
    4500           10    172711.88       73.664    73.664001       36.752          120   -204217.99   -204209.08   -275754.38    1.0250408   0.54269768   0.23015431       73.664    63.794896       36.752   -228060.48   -308813.26 
    4600           10    172711.88       73.664    73.664001       36.752          120   -204217.99   -204209.08   -275754.38    1.0250408   0.54269768   0.23015431       73.664    63.794896       36.752   -228060.48   -308813.26 
    4700           10    172711.88       73.664    73.664001       36.752          120   -204217.99   -204209.08   -275754.38    1.0250408   0.54269768   0.23015431       73.664    63.794896       36.752   -228060.48   -308813.26 
    4800           10    172711.88       73.664    73.664001       36.752          120   -204217.99   -204209.08   -275754.38    1.0250408   0.54269768   0.23015431       73.664    63.794896       36.752   -228060.48   -308813.26 
    4900           10    172711.88       73.664    73.664001       36.752          120   -204217.99   -204209.08   -275754.38    1.0250408   0.54269768   0.23015431       73.664    63.794896       36.752   -228060.48   -308813.26 
    5000           10    172711.88       73.664    73.664001       36.752          120   -204217.99   -204209.08   -275754.38    1.0250408   0.54269768   0.23015431       73.664    63.794896       36.752   -228060.48   -308813.26 
    5100           10    172711.88       73.664    73.664001       36.752          120   -204217.99   -204209.08   -275754.38    1.0250408   0.54269768   0.23015431       73.664    63.794896       36.752   -228060.48   -308813.26 
    5200           10    172711.88       73.664    73.664001       36.752          120   -204217.99   -204209.08   -275754.38    1.0250408   0.54269768   0.23015431       73.664    63.794896       36.752   -228060.48   -308813.26 
    5300           10    172711.88       73.664    73.664001       36.752          120   -204217.99   -204209.08   -275754.38    1.0250408   0.54269768   0.23015431       73.664    63.794896       36.752   -228060.48   -308813.26 
    5400           10    172711.88       73.664    73.664001       36.752          120   -204217.99   -204209.08   -275754.38    1.0250408   0.54269768   0.23015431       73.664    63.794896       36.752   -228060.48   -308813.26 
    5500           10    172711.88       73.664    73.664001       36.752          120   -204217.99   -204209.08   -275754.38    1.0250408   0.54269768   0.23015431       73.664    63.794896       36.752   -228060.48   -308813.26 
    5600           10    172711.88       73.664    73.664001       36.752          120   -204217.99   -204209.08   -275754.38    1.0250408   0.54269768   0.23015431       73.664    63.794896       36.752   -228060.48   -308813.26 
    5700           10    172711.88       73.664    73.664001       36.752          120   -204217.99   -204209.08   -275754.38    1.0250408   0.54269768   0.23015431       73.664    63.794896       36.752   -228060.48   -308813.26 
    5800           10    172711.88       73.664    73.664001       36.752          120   -204217.99   -204209.08   -275754.38    1.0250408   0.54269768   0.23015431       73.664    63.794896       36.752   -228060.48   -308813.26 
    5900           10    172711.88       73.664    73.664001       36.752          120   -204217.99   -204209.08   -275754.38    1.0250408   0.54269768   0.23015431       73.664    63.794896       36.752   -228060.48   -308813.26 
    6000           10    172711.88       73.664    73.664001       36.752          120   -204217.99   -204209.08   -275754.38    1.0250408   0.54269768   0.23015431       73.664    63.794896       36.752   -228060.48   -308813.26 
    6100           10    172711.88       73.664    73.664001       36.752          120   -204217.99   -204209.08   -275754.38    1.0250408   0.54269768   0.23015431       73.664    63.794896       36.752   -228060.48   -308813.26 
    6200           10    172711.88       73.664    73.664001       36.752          120   -204217.99   -204209.08   -275754.38    1.0250408   0.54269768   0.23015431       73.664    63.794896       36.752   -228060.48   -308813.26 
    6300           10    172711.88       73.664    73.664001       36.752          120   -204217.99   -204209.08   -275754.38    1.0250408   0.54269768   0.23015431       73.664    63.794896       36.752   -228060.48   -308813.26 
    6400           10    172711.88       73.664    73.664001       36.752          120   -204217.99   -204209.08   -275754.38    1.0250408   0.54269768   0.23015431       73.664    63.794896       36.752   -228060.48   -308813.26 
    6500           10    172711.88       73.664    73.664001       36.752          120   -204217.99   -204209.08   -275754.38    1.0250408   0.54269768   0.23015431       73.664    63.794896       36.752   -228060.48   -308813.26 
    6600           10    172711.88       73.664    73.664001       36.752          120   -204217.99   -204209.08   -275754.38    1.0250408   0.54269768   0.23015431       73.664    63.794896       36.752   -228060.48   -308813.26 
    6700           10    172711.88       73.664    73.664001       36.752          120   -204217.99   -204209.08   -275754.38    1.0250408   0.54269768   0.23015431       73.664    63.794896       36.752   -228060.48   -308813.26 
    6800           10    172711.88       73.664    73.664001       36.752          120   -204217.99   -204209.08   -275754.38    1.0250408   0.54269768   0.23015431       73.664    63.794896       36.752   -228060.48   -308813.26 
    6900           10    172711.88       73.664    73.664001       36.752          120   -204217.99   -204209.08   -275754.38    1.0250408   0.54269768   0.23015431       73.664    63.794896       36.752   -228060.48   -308813.26 
    7000           10    172711.88       73.664    73.664001       36.752          120   -204217.99   -204209.08   -275754.38    1.0250408   0.54269768   0.23015431       73.664    63.794896       36.752   -228060.48   -308813.26 
    7100           10    172711.88       73.664    73.664001       36.752          120   -204217.99   -204209.08   -275754.38    1.0250408   0.54269768   0.23015431       73.664    63.794896       36.752   -228060.48   -308813.26 
    7200           10    172711.88       73.664    73.664001       36.752          120   -204217.99   -204209.08   -275754.38    1.0250408   0.54269768   0.23015431       73.664    63.794896       36.752   -228060.48   -308813.26 
    7300           10    172711.88       73.664    73.664001       36.752          120   -204217.99   -204209.08   -275754.38    1.0250408   0.54269768   0.23015431       73.664    63.794896       36.752   -228060.48   -308813.26 
    7400           10    172711.88       73.664    73.664001       36.752          120   -204217.99   -204209.08   -275754.38    1.0250408   0.54269768   0.23015431       73.664    63.794896       36.752   -228060.48   -308813.26 
    7500           10    172711.88       73.664    73.664001       36.752          120   -204217.99   -204209.08   -275754.38    1.0250408   0.54269768   0.23015431       73.664    63.794896       36.752   -228060.48   -308813.26 
    7600           10    172711.88       73.664    73.664001       36.752          120   -204217.99   -204209.08   -275754.38    1.0250408   0.54269768   0.23015431       73.664    63.794896       36.752   -228060.48   -308813.26 
    7700           10    172711.88       73.664    73.664001       36.752          120   -204217.99   -204209.08   -275754.38    1.0250408   0.54269768   0.23015431       73.664    63.794896       36.752   -228060.48   -308813.26 
    7800           10    172711.88       73.664    73.664001       36.752          120   -204217.99   -204209.08   -275754.38    1.0250408   0.54269768   0.23015431       73.664    63.794896       36.752   -228060.48   -308813.26 
    7900           10    172711.88       73.664    73.664001       36.752          120   -204217.99   -204209.08   -275754.38    1.0250408   0.54269768   0.23015431       73.664    63.794896       36.752   -228060.48   -308813.26 
    8000           10    172711.88       73.664    73.664001       36.752          120   -204217.99   -204209.08   -275754.38    1.0250408   0.54269768   0.23015431       73.664    63.794896       36.752   -228060.48   -308813.26 
    8100           10    172711.88       73.664    73.664001       36.752          120   -204217.99   -204209.08   -275754.38    1.0250408   0.54269768   0.23015431       73.664    63.794896       36.752   -228060.48   -308813.26 
    8200           10    172711.88       73.664    73.664001       36.752          120   -204217.99   -204209.08   -275754.38    1.0250408   0.54269768   0.23015431       73.664    63.794896       36.752   -228060.48   -308813.26 
    8300           10    172711.88       73.664    73.664001       36.752          120   -204217.99   -204209.08   -275754.38    1.0250408   0.54269768   0.23015431       73.664    63.794896       36.752   -228060.48   -308813.26 
    8400           10    172711.88       73.664    73.664001       36.752          120   -204217.99   -204209.08   -275754.38    1.0250408   0.54269768   0.23015431       73.664    63.794896       36.752   -228060.48   -308813.26 
    8500           10    172711.88       73.664    73.664001       36.752          120   -204217.99   -204209.08   -275754.38    1.0250408   0.54269768   0.23015431       73.664    63.794896       36.752   -228060.48   -308813.26 
    8600           10    172711.88       73.664    73.664001       36.752          120   -204217.99   -204209.08   -275754.38    1.0250408   0.54269768   0.23015431       73.664    63.794896       36.752   -228060.48   -308813.26 
    8700           10    172711.88       73.664    73.664001       36.752          120   -204217.99   -204209.08   -275754.38    1.0250408   0.54269768   0.23015431       73.664    63.794896       36.752   -228060.48   -308813.26 
    8800           10    172711.88       73.664    73.664001       36.752          120   -204217.99   -204209.08   -275754.38    1.0250408   0.54269768   0.23015431       73.664    63.794896       36.752   -228060.48   -308813.26 
    8900           10    172711.88       73.664    73.664001       36.752          120   -204217.99   -204209.08   -275754.38    1.0250408   0.54269768   0.23015431       73.664    63.794896       36.752   -228060.48   -308813.26 
    9000           10    172711.88       73.664    73.664001       36.752          120   -204217.99   -204209.08   -275754.38    1.0250408   0.54269768   0.23015431       73.664    63.794896       36.752   -228060.48   -308813.26 
    9100           10    172711.88       73.664    73.664001       36.752          120   -204217.99   -204209.08   -275754.38    1.0250408   0.54269768   0.23015431       73.664    63.794896       36.752   -228060.48   -308813.26 
    9200           10    172711.88       73.664    73.664001       36.752          120   -204217.99   -204209.08   -275754.38    1.0250408   0.54269768   0.23015431       73.664    63.794896       36.752   -228060.48   -308813.26 
    9300           10    172711.88       73.664    73.664001       36.752          120   -204217.99   -204209.08   -275754.38    1.0250408   0.54269768   0.23015431       73.664    63.794896       36.752   -228060.48   -308813.26 
    9400           10    172711.88       73.664    73.664001       36.752          120   -204217.99   -204209.08   -275754.38    1.0250408   0.54269768   0.23015431       73.664    63.794896       36.752   -228060.48   -308813.26 
    9500           10    172711.88       73.664    73.664001       36.752          120   -204217.99   -204209.08   -275754.38    1.0250408   0.54269768   0.23015431       73.664    63.794896       36.752   -228060.48   -308813.26 
    9600           10    172711.88       73.664    73.664001       36.752          120   -204217.99   -204209.08   -275754.38    1.0250408   0.54269768   0.23015431       73.664    63.794896       36.752   -228060.48   -308813.26 
    9700           10    172711.88       73.664    73.664001       36.752          120   -204217.99   -204209.08   -275754.38    1.0250408   0.54269768   0.23015431       73.664    63.794896       36.752   -228060.48   -308813.26 
    9800           10    172711.88       73.664    73.664001       36.752          120   -204217.99   -204209.08   -275754.38    1.0250408   0.54269768   0.23015431       73.664    63.794896       36.752   -228060.48   -308813.26 
    9900           10    172711.88       73.664    73.664001       36.752          120   -204217.99   -204209.08   -275754.38    1.0250408   0.54269768   0.23015431       73.664    63.794896       36.752   -228060.48   -308813.26 
   10000           10    172711.88       73.664    73.664001       36.752          120   -204217.99   -204209.08   -275754.38    1.0250408   0.54269768   0.23015431       73.664    63.794896       36.752   -228060.48   -308813.26 
   10100           10    172711.88       73.664    73.664001       36.752          120   -204217.99   -204209.08   -275754.38    1.0250408   0.54269768   0.23015431       73.664    63.794896       36.752   -228060.48   -308813.26 
   10200           10    172711.88       73.664    73.664001       36.752          120   -204217.99   -204209.08   -275754.38    1.0250408   0.54269768   0.23015431       73.664    63.794896       36.752   -228060.48   -308813.26 
   10300           10    172711.88       73.664    73.664001       36.752          120   -204217.99   -204209.08   -275754.38    1.0250408   0.54269768   0.23015431       73.664    63.794896       36.752   -228060.48   -308813.26 
   10400           10    172711.88       73.664    73.664001       36.752          120   -204217.99   -204209.08   -275754.38    1.0250408   0.54269768   0.23015431       73.664    63.794896       36.752   -228060.48   -308813.26 
   10500           10    172711.88       73.664    73.664001       36.752          120   -204217.99   -204209.08   -275754.38    1.0250408   0.54269768   0.23015431       73.664    63.794896       36.752   -228060.48   -308813.26 
   10600           10    172711.88       73.664    73.664001       36.752          120   -204217.99   -204209.08   -275754.38    1.0250408   0.54269768   0.23015431       73.664    63.794896       36.752   -228060.48   -308813.26 
   10700           10    172711.88       73.664    73.664001       36.752          120   -204217.99   -204209.08   -275754.38    1.0250408   0.54269768   0.23015431       73.664    63.794896       36.752   -228060.48   -308813.26 
   10800           10    172711.88       73.664    73.664001       36.752          120   -204217.99   -204209.08   -275754.38    1.0250408   0.54269768   0.23015431       73.664    63.794896       36.752   -228060.48   -308813.26 
   10900           10    172711.88       73.664    73.664001       36.752          120   -204217.99   -204209.08   -275754.38    1.0250408   0.54269768   0.23015431       73.664    63.794896       36.752   -228060.48   -308813.26 
   11000           10    172711.88       73.664    73.664001       36.752          120   -204217.99   -204209.08   -275754.38    1.0250408   0.54269768   0.23015431       73.664    63.794896       36.752   -228060.48   -308813.26 
   11100           10    172711.88       73.664    73.664001       36.752          120   -204217.99   -204209.08   -275754.38    1.0250408   0.54269768   0.23015431       73.664    63.794896       36.752   -228060.48   -308813.26 
   11200           10    172711.88       73.664    73.664001       36.752          120   -204217.99   -204209.08   -275754.38    1.0250408   0.54269768   0.23015431       73.664    63.794896       36.752   -228060.48   -308813.26 
   11300           10    172711.88       73.664    73.664001       36.752          120   -204217.99   -204209.08   -275754.38    1.0250408   0.54269768   0.23015431       73.664    63.794896       36.752   -228060.48   -308813.26 
   11400           10    172711.88       73.664    73.664001       36.752          120   -204217.99   -204209.08   -275754.38    1.0250408   0.54269768   0.23015431       73.664    63.794896       36.752   -228060.48   -308813.26 
   11500           10    172711.88       73.664    73.664001       36.752          120   -204217.99   -204209.08   -275754.38    1.0250408   0.54269768   0.23015431       73.664    63.794896       36.752   -228060.48   -308813.26 
   11600           10    172711.88       73.664    73.664001       36.752          120   -204217.99   -204209.08   -275754.38    1.0250408   0.54269768   0.23015431       73.664    63.794896       36.752   -228060.48   -308813.26 
   11700           10    172711.88       73.664    73.664001       36.752          120   -204217.99   -204209.08   -275754.38    1.0250408   0.54269768   0.23015431       73.664    63.794896       36.752   -228060.48   -308813.26 
   11800           10    172711.88       73.664    73.664001       36.752          120   -204217.99   -204209.08   -275754.38    1.0250408   0.54269768   0.23015431       73.664    63.794896       36.752   -228060.48   -308813.26 
   11900           10    172711.88       73.664    73.664001       36.752          120   -204217.99   -204209.08   -275754.38    1.0250408   0.54269768   0.23015431       73.664    63.794896       36.752   -228060.48   -308813.26 
   12000           10    172711.88       73.664    73.664001       36.752          120   -204217.99   -204209.08   -275754.38    1.0250408   0.54269768   0.23015431       73.664    63.794896       36.752   -228060.48   -308813.26 
   12100           10    172711.88       73.664    73.664001       36.752          120   -204217.99   -204209.08   -275754.38    1.0250408   0.54269768   0.23015431       73.664    63.794896       36.752   -228060.48   -308813.26 
   12200           10    172711.88       73.664    73.664001       36.752          120   -204217.99   -204209.08   -275754.38    1.0250408   0.54269768   0.23015431       73.664    63.794896       36.752   -228060.48   -308813.26 
   12300           10    172711.88       73.664    73.664001       36.752          120   -204217.99   -204209.08   -275754.38    1.0250408   0.54269768   0.23015431       73.664    63.794896       36.752   -228060.48   -308813.26 
   12400           10    172711.88       73.664    73.664001       36.752          120   -204217.99   -204209.08   -275754.38    1.0250408   0.54269768   0.23015431       73.664    63.794896       36.752   -228060.48   -308813.26 
   12500           10    172711.88       73.664    73.664001       36.752          120   -204217.99   -204209.08   -275754.38    1.0250408   0.54269768   0.23015431       73.664    63.794896       36.752   -228060.48   -308813.26 
   12600           10    172711.88       73.664    73.664001       36.752          120   -204217.99   -204209.08   -275754.38    1.0250408   0.54269768   0.23015431       73.664    63.794896       36.752   -228060.48   -308813.26 
   12700           10    172711.88       73.664    73.664001       36.752          120   -204217.99   -204209.08   -275754.38    1.0250408   0.54269768   0.23015431       73.664    63.794896       36.752   -228060.48   -308813.26 
   12800           10    172711.88       73.664    73.664001       36.752          120   -204217.99   -204209.08   -275754.38    1.0250408   0.54269768   0.23015431       73.664    63.794896       36.752   -228060.48   -308813.26 
   12900           10    172711.88       73.664    73.664001       36.752          120   -204217.99   -204209.08   -275754.38    1.0250408   0.54269768   0.23015431       73.664    63.794896       36.752   -228060.48   -308813.26 
   13000           10    172711.88       73.664    73.664001       36.752          120   -204217.99   -204209.08   -275754.38    1.0250408   0.54269768   0.23015431       73.664    63.794896       36.752   -228060.48   -308813.26 
   13100           10    172711.88       73.664    73.664001       36.752          120   -204217.99   -204209.08   -275754.38    1.0250408   0.54269768   0.23015431       73.664    63.794896       36.752   -228060.48   -308813.26 
   13200           10    172711.88       73.664    73.664001       36.752          120   -204217.99   -204209.08   -275754.38    1.0250408   0.54269768   0.23015431       73.664    63.794896       36.752   -228060.48   -308813.26 
   13300           10    172711.88       73.664    73.664001       36.752          120   -204217.99   -204209.08   -275754.38    1.0250408   0.54269768   0.23015431       73.664    63.794896       36.752   -228060.48   -308813.26 
   13400           10    172711.88       73.664    73.664001       36.752          120   -204217.99   -204209.08   -275754.38    1.0250408   0.54269768   0.23015431       73.664    63.794896       36.752   -228060.48   -308813.26 
   13500           10    172711.88       73.664    73.664001       36.752          120   -204217.99   -204209.08   -275754.38    1.0250408   0.54269768   0.23015431       73.664    63.794896       36.752   -228060.48   -308813.26 
   13600           10    172711.88       73.664    73.664001       36.752          120   -204217.99   -204209.08   -275754.38    1.0250408   0.54269768   0.23015431       73.664    63.794896       36.752   -228060.48   -308813.26 
   13700           10    172711.88       73.664    73.664001       36.752          120   -204217.99   -204209.08   -275754.38    1.0250408   0.54269768   0.23015431       73.664    63.794896       36.752   -228060.48   -308813.26 
   13800           10    172711.88       73.664    73.664001       36.752          120   -204217.99   -204209.08   -275754.38    1.0250408   0.54269768   0.23015431       73.664    63.794896       36.752   -228060.48   -308813.26 
   13900           10    172711.88       73.664    73.664001       36.752          120   -204217.99   -204209.08   -275754.38    1.0250408   0.54269768   0.23015431       73.664    63.794896       36.752   -228060.48   -308813.26 
   14000           10    172711.88       73.664    73.664001       36.752          120   -204217.99   -204209.08   -275754.38    1.0250408   0.54269768   0.23015431       73.664    63.794896       36.752   -228060.48   -308813.26 
   14100           10    172711.88       73.664    73.664001       36.752          120   -204217.99   -204209.08   -275754.38    1.0250408   0.54269768   0.23015431       73.664    63.794896       36.752   -228060.48   -308813.26 
   14200           10    172711.88       73.664    73.664001       36.752          120   -204217.99   -204209.08   -275754.38    1.0250408   0.54269768   0.23015431       73.664    63.794896       36.752   -228060.48   -308813.26 
   14300           10    172711.88       73.664    73.664001       36.752          120   -204217.99   -204209.08   -275754.38    1.0250408   0.54269768   0.23015431       73.664    63.794896       36.752   -228060.48   -308813.26 
   14400           10    172711.88       73.664    73.664001       36.752          120   -204217.99   -204209.08   -275754.38    1.0250408   0.54269768   0.23015431       73.664    63.794896       36.752   -228060.48   -308813.26 
   14500           10    172711.88       73.664    73.664001       36.752          120   -204217.99   -204209.08   -275754.38    1.0250408   0.54269768   0.23015431       73.664    63.794896       36.752   -228060.48   -308813.26 
   14600           10    172711.88       73.664    73.664001       36.752          120   -204217.99   -204209.08   -275754.38    1.0250408   0.54269768   0.23015431       73.664    63.794896       36.752   -228060.48   -308813.26 
   14700           10    172711.88       73.664    73.664001       36.752          120   -204217.99   -204209.08   -275754.38    1.0250408   0.54269768   0.23015431       73.664    63.794896       36.752   -228060.48   -308813.26 
   14800           10    172711.88       73.664    73.664001       36.752          120   -204217.99   -204209.08   -275754.38    1.0250408   0.54269768   0.23015431       73.664    63.794896       36.752   -228060.48   -308813.26 
   14900           10    172711.88       73.664    73.664001       36.752          120   -204217.99   -204209.08   -275754.38    1.0250408   0.54269768   0.23015431       73.664    63.794896       36.752   -228060.48   -308813.26 
   15000           10    172711.88       73.664    73.664001       36.752          120   -204217.99   -204209.08   -275754.38    1.0250408   0.54269768   0.23015431       73.664    63.794896       36.752   -228060.48   -308813.26 
   15100           10    172711.88       73.664    73.664001       36.752          120   -204217.99   -204209.08   -275754.38    1.0250408   0.54269768   0.23015431       73.664    63.794896       36.752   -228060.48   -308813.26 
   15200           10    172711.88       73.664    73.664001       36.752          120   -204217.99   -204209.08   -275754.38    1.0250408   0.54269768   0.23015431       73.664    63.794896       36.752   -228060.48   -308813.26 
   15300           10    172711.88       73.664    73.664001       36.752          120   -204217.99   -204209.08   -275754.38    1.0250408   0.54269768   0.23015431       73.664    63.794896       36.752   -228060.48   -308813.26 
   15400           10    172711.88       73.664    73.664001       36.752          120   -204217.99   -204209.08   -275754.38    1.0250408   0.54269768   0.23015431       73.664    63.794896       36.752   -228060.48   -308813.26 
   15500           10    172711.88       73.664    73.664001       36.752          120   -204217.99   -204209.08   -275754.38    1.0250408   0.54269768   0.23015431       73.664    63.794896       36.752   -228060.48   -308813.26 
   15600           10    172711.88       73.664    73.664001       36.752          120   -204217.99   -204209.08   -275754.38    1.0250408   0.54269768   0.23015431       73.664    63.794896       36.752   -228060.48   -308813.26 
   15700           10    172711.88       73.664    73.664001       36.752          120   -204217.99   -204209.08   -275754.38    1.0250408   0.54269768   0.23015431       73.664    63.794896       36.752   -228060.48   -308813.26 
   15800           10    172711.88       73.664    73.664001       36.752          120   -204217.99   -204209.08   -275754.38    1.0250408   0.54269768   0.23015431       73.664    63.794896       36.752   -228060.48   -308813.26 
   15900           10    172711.88       73.664    73.664001       36.752          120   -204217.99   -204209.08   -275754.38    1.0250408   0.54269768   0.23015431       73.664    63.794896       36.752   -228060.48   -308813.26 
   16000           10    172711.88       73.664    73.664001       36.752          120   -204217.99   -204209.08   -275754.38    1.0250408   0.54269768   0.23015431       73.664    63.794896       36.752   -228060.48   -308813.26 
   16100           10    172711.88       73.664    73.664001       36.752          120   -204217.99   -204209.08   -275754.38    1.0250408   0.54269768   0.23015431       73.664    63.794896       36.752   -228060.48   -308813.26 
   16200           10    172711.88       73.664    73.664001       36.752          120   -204217.99   -204209.08   -275754.38    1.0250408   0.54269768   0.23015431       73.664    63.794896       36.752   -228060.48   -308813.26 
   16300           10    172711.88       73.664    73.664001       36.752          120   -204217.99   -204209.08   -275754.38    1.0250408   0.54269768   0.23015431       73.664    63.794896       36.752   -228060.48   -308813.26 
   16400           10    172711.88       73.664    73.664001       36.752          120   -204217.99   -204209.08   -275754.38    1.0250408   0.54269768   0.23015431       73.664    63.794896       36.752   -228060.48   -308813.26 
   16500           10    172711.88       73.664    73.664001       36.752          120   -204217.99   -204209.08   -275754.38    1.0250408   0.54269768   0.23015431       73.664    63.794896       36.752   -228060.48   -308813.26 
   16600           10    172711.88       73.664    73.664001       36.752          120   -204217.99   -204209.08   -275754.38    1.0250408   0.54269768   0.23015431       73.664    63.794896       36.752   -228060.48   -308813.26 
   16700           10    172711.88       73.664    73.664001       36.752          120   -204217.99   -204209.08   -275754.38    1.0250408   0.54269768   0.23015431       73.664    63.794896       36.752   -228060.48   -308813.26 
   16800           10    172711.88       73.664    73.664001       36.752          120   -204217.99   -204209.08   -275754.38    1.0250408   0.54269768   0.23015431       73.664    63.794896       36.752   -228060.48   -308813.26 
   16900           10    172711.88       73.664    73.664001       36.752          120   -204217.99   -204209.08   -275754.38    1.0250408   0.54269768   0.23015431       73.664    63.794896       36.752   -228060.48   -308813.26 
   17000           10    172711.88       73.664    73.664001       36.752          120   -204217.99   -204209.08   -275754.38    1.0250408   0.54269768   0.23015431       73.664    63.794896       36.752   -228060.48   -308813.26 
   17100           10    172711.88       73.664    73.664001       36.752          120   -204217.99   -204209.08   -275754.38    1.0250408   0.54269768   0.23015431       73.664    63.794896       36.752   -228060.48   -308813.26 
   17200           10    172711.88       73.664    73.664001       36.752          120   -204217.99   -204209.08   -275754.38    1.0250408   0.54269768   0.23015431       73.664    63.794896       36.752   -228060.48   -308813.26 
   17300           10    172711.88       73.664    73.664001       36.752          120   -204217.99   -204209.08   -275754.38    1.0250408   0.54269768   0.23015431       73.664    63.794896       36.752   -228060.48   -308813.26 
   17400           10    172711.88       73.664    73.664001       36.752          120   -204217.99   -204209.08   -275754.38    1.0250408   0.54269768   0.23015431       73.664    63.794896       36.752   -228060.48   -308813.26 
   17500           10    172711.88       73.664    73.664001       36.752          120   -204217.99   -204209.08   -275754.38    1.0250408   0.54269768   0.23015431       73.664    63.794896       36.752   -228060.48   -308813.26 
   17600           10    172711.88       73.664    73.664001       36.752          120   -204217.99   -204209.08   -275754.38    1.0250408   0.54269768   0.23015431       73.664    63.794896       36.752   -228060.48   -308813.26 
   17700           10    172711.88       73.664    73.664001       36.752          120   -204217.99   -204209.08   -275754.38    1.0250408   0.54269768   0.23015431       73.664    63.794896       36.752   -228060.48   -308813.26 
   17800           10    172711.88       73.664    73.664001       36.752          120   -204217.99   -204209.08   -275754.38    1.0250408   0.54269768   0.23015431       73.664    63.794896       36.752   -228060.48   -308813.26 
   17900           10    172711.88       73.664    73.664001       36.752          120   -204217.99   -204209.08   -275754.38    1.0250408   0.54269768   0.23015431       73.664    63.794896       36.752   -228060.48   -308813.26 
   18000           10    172711.88       73.664    73.664001       36.752          120   -204217.99   -204209.08   -275754.38    1.0250408   0.54269768   0.23015431       73.664    63.794896       36.752   -228060.48   -308813.26 
   18100           10    172711.88       73.664    73.664001       36.752          120   -204217.99   -204209.08   -275754.38    1.0250408   0.54269768   0.23015431       73.664    63.794896       36.752   -228060.48   -308813.26 
   18200           10    172711.88       73.664    73.664001       36.752          120   -204217.99   -204209.08   -275754.38    1.0250408   0.54269768   0.23015431       73.664    63.794896       36.752   -228060.48   -308813.26 
   18300           10    172711.88       73.664    73.664001       36.752          120   -204217.99   -204209.08   -275754.38    1.0250408   0.54269768   0.23015431       73.664    63.794896       36.752   -228060.48   -308813.26 
   18400           10    172711.88       73.664    73.664001       36.752          120   -204217.99   -204209.08   -275754.38    1.0250408   0.54269768   0.23015431       73.664    63.794896       36.752   -228060.48   -308813.26 
   18500           10    172711.88       73.664    73.664001       36.752          120   -204217.99   -204209.08   -275754.38    1.0250408   0.54269768   0.23015431       73.664    63.794896       36.752   -228060.48   -308813.26 
   18600           10    172711.88       73.664    73.664001       36.752          120   -204217.99   -204209.08   -275754.38    1.0250408   0.54269768   0.23015431       73.664    63.794896       36.752   -228060.48   -308813.26 
   18700           10    172711.88       73.664    73.664001       36.752          120   -204217.99   -204209.08   -275754.38    1.0250408   0.54269768   0.23015431       73.664    63.794896       36.752   -228060.48   -308813.26 
   18800           10    172711.88       73.664    73.664001       36.752          120   -204217.99   -204209.08   -275754.38    1.0250408   0.54269768   0.23015431       73.664    63.794896       36.752   -228060.48   -308813.26 
   18900           10    172711.88       73.664    73.664001       36.752          120   -204217.99   -204209.08   -275754.38    1.0250408   0.54269768   0.23015431       73.664    63.794896       36.752   -228060.48   -308813.26 
   19000           10    172711.88       73.664    73.664001       36.752          120   -204217.99   -204209.08   -275754.38    1.0250408   0.54269768   0.23015431       73.664    63.794896       36.752   -228060.48   -308813.26 
   19100           10    172711.88       73.664    73.664001       36.752          120   -204217.99   -204209.08   -275754.38    1.0250408   0.54269768   0.23015431       73.664    63.794896       36.752   -228060.48   -308813.26 
   19200           10    172711.88       73.664    73.664001       36.752          120   -204217.99   -204209.08   -275754.38    1.0250408   0.54269768   0.23015431       73.664    63.794896       36.752   -228060.48   -308813.26 
   19300           10    172711.88       73.664    73.664001       36.752          120   -204217.99   -204209.08   -275754.38    1.0250408   0.54269768   0.23015431       73.664    63.794896       36.752   -228060.48   -308813.26 
   19400           10    172711.88       73.664    73.664001       36.752          120   -204217.99   -204209.08   -275754.38    1.0250408   0.54269768   0.23015431       73.664    63.794896       36.752   -228060.48   -308813.26 
   19500           10    172711.88       73.664    73.664001       36.752          120   -204217.99   -204209.08   -275754.38    1.0250408   0.54269768   0.23015431       73.664    63.794896       36.752   -228060.48   -308813.26 
   19600           10    172711.88       73.664    73.664001       36.752          120   -204217.99   -204209.08   -275754.38    1.0250408   0.54269768   0.23015431       73.664    63.794896       36.752   -228060.48   -308813.26 
   19700           10    172711.88       73.664    73.664001       36.752          120   -204217.99   -204209.08   -275754.38    1.0250408   0.54269768   0.23015431       73.664    63.794896       36.752   -228060.48   -308813.26 
   19800           10    172711.88       73.664    73.664001       36.752          120   -204217.99   -204209.08   -275754.38    1.0250408   0.54269768   0.23015431       73.664    63.794896       36.752   -228060.48   -308813.26 
   19900           10    172711.88       73.664    73.664001       36.752          120   -204217.99   -204209.08   -275754.38    1.0250408   0.54269768   0.23015431       73.664    63.794896       36.752   -228060.48   -308813.26 
   20000           10    172711.88       73.664    73.664001       36.752          120   -204217.99   -204209.08   -275754.38    1.0250408   0.54269768   0.23015431       73.664    63.794896       36.752   -228060.48   -308813.26 
   20100           10    172711.88       73.664    73.664001       36.752          120   -204217.99   -204209.08   -275754.38    1.0250408   0.54269768   0.23015431       73.664    63.794896       36.752   -228060.48   -308813.26 
   20200           10    172711.88       73.664    73.664001       36.752          120   -204217.99   -204209.08   -275754.38    1.0250408   0.54269768   0.23015431       73.664    63.794896       36.752   -228060.48   -308813.26 
   20300           10    172711.88       73.664    73.664001       36.752          120   -204217.99   -204209.08   -275754.38    1.0250408   0.54269768   0.23015431       73.664    63.794896       36.752   -228060.48   -308813.26 
   20400           10    172711.88       73.664    73.664001       36.752          120   -204217.99   -204209.08   -275754.38    1.0250408   0.54269768   0.23015431       73.664    63.794896       36.752   -228060.48   -308813.26 
   20500           10    172711.88       73.664    73.664001       36.752          120   -204217.99   -204209.08   -275754.38    1.0250408   0.54269768   0.23015431       73.664    63.794896       36.752   -228060.48   -308813.26 
   20600           10    172711.88       73.664    73.664001       36.752          120   -204217.99   -204209.08   -275754.38    1.0250408   0.54269768   0.23015431       73.664    63.794896       36.752   -228060.48   -308813.26 
   20700           10    172711.88       73.664    73.664001       36.752          120   -204217.99   -204209.08   -275754.38    1.0250408   0.54269768   0.23015431       73.664    63.794896       36.752   -228060.48   -308813.26 
   20800           10    172711.88       73.664    73.664001       36.752          120   -204217.99   -204209.08   -275754.38    1.0250408   0.54269768   0.23015431       73.664    63.794896       36.752   -228060.48   -308813.26 
   20900           10    172711.88       73.664    73.664001       36.752          120   -204217.99   -204209.08   -275754.38    1.0250408   0.54269768   0.23015431       73.664    63.794896       36.752   -228060.48   -308813.26 
   21000           10    172711.88       73.664    73.664001       36.752          120   -204217.99   -204209.08   -275754.38    1.0250408   0.54269768   0.23015431       73.664    63.794896       36.752   -228060.48   -308813.26 
   21100           10    172711.88       73.664    73.664001       36.752          120   -204217.99   -204209.08   -275754.38    1.0250408   0.54269768   0.23015431       73.664    63.794896       36.752   -228060.48   -308813.26 
   21200           10    172711.88       73.664    73.664001       36.752          120   -204217.99   -204209.08   -275754.38    1.0250408   0.54269768   0.23015431       73.664    63.794896       36.752   -228060.48   -308813.26 
   21300           10    172711.88       73.664    73.664001       36.752          120   -204217.99   -204209.08   -275754.38    1.0250408   0.54269768   0.23015431       73.664    63.794896       36.752   -228060.48   -308813.26 
   21400           10    172711.88       73.664    73.664001       36.752          120   -204217.99   -204209.08   -275754.38    1.0250408   0.54269768   0.23015431       73.664    63.794896       36.752   -228060.48   -308813.26 
   21500           10    172711.88       73.664    73.664001       36.752          120   -204217.99   -204209.08   -275754.38    1.0250408   0.54269768   0.23015431       73.664    63.794896       36.752   -228060.48   -308813.26 
   21600           10    172711.88       73.664    73.664001       36.752          120   -204217.99   -204209.08   -275754.38    1.0250408   0.54269768   0.23015431       73.664    63.794896       36.752   -228060.48   -308813.26 
   21700           10    172711.88       73.664    73.664001       36.752          120   -204217.99   -204209.08   -275754.38    1.0250408   0.54269768   0.23015431       73.664    63.794896       36.752   -228060.48   -308813.26 
   21800           10    172711.88       73.664    73.664001       36.752          120   -204217.99   -204209.08   -275754.38    1.0250408   0.54269768   0.23015431       73.664    63.794896       36.752   -228060.48   -308813.26 
   21900           10    172711.88       73.664    73.664001       36.752          120   -204217.99   -204209.08   -275754.38    1.0250408   0.54269768   0.23015431       73.664    63.794896       36.752   -228060.48   -308813.26 
   22000           10    172711.88       73.664    73.664001       36.752          120   -204217.99   -204209.08   -275754.38    1.0250408   0.54269768   0.23015431       73.664    63.794896       36.752   -228060.48   -308813.26 
   22100           10    172711.88       73.664    73.664001       36.752          120   -204217.99   -204209.08   -275754.38    1.0250408   0.54269768   0.23015431       73.664    63.794896       36.752   -228060.48   -308813.26 
   22200           10    172711.88       73.664    73.664001       36.752          120   -204217.99   -204209.08   -275754.38    1.0250408   0.54269768   0.23015431       73.664    63.794896       36.752   -228060.48   -308813.26 
   22300           10    172711.88       73.664    73.664001       36.752          120   -204217.99   -204209.08   -275754.38    1.0250408   0.54269768   0.23015431       73.664    63.794896       36.752   -228060.48   -308813.26 
   22400           10    172711.88       73.664    73.664001       36.752          120   -204217.99   -204209.08   -275754.38    1.0250408   0.54269768   0.23015431       73.664    63.794896       36.752   -228060.48   -308813.26 
   22500           10    172711.88       73.664    73.664001       36.752          120   -204217.99   -204209.08   -275754.38    1.0250408   0.54269768   0.23015431       73.664    63.794896       36.752   -228060.48   -308813.26 
   22600           10    172711.88       73.664    73.664001       36.752          120   -204217.99   -204209.08   -275754.38    1.0250408   0.54269768   0.23015431       73.664    63.794896       36.752   -228060.48   -308813.26 
   22700           10    172711.88       73.664    73.664001       36.752          120   -204217.99   -204209.08   -275754.38    1.0250408   0.54269768   0.23015431       73.664    63.794896       36.752   -228060.48   -308813.26 
   22800           10    172711.88       73.664    73.664001       36.752          120   -204217.99   -204209.08   -275754.38    1.0250408   0.54269768   0.23015431       73.664    63.794896       36.752   -228060.48   -308813.26 
   22900           10    172711.88       73.664    73.664001       36.752          120   -204217.99   -204209.08   -275754.38    1.0250408   0.54269768   0.23015431       73.664    63.794896       36.752   -228060.48   -308813.26 
   23000           10    172711.88       73.664    73.664001       36.752          120   -204217.99   -204209.08   -275754.38    1.0250408   0.54269768   0.23015431       73.664    63.794896       36.752   -228060.48   -308813.26 
   23100           10    172711.88       73.664    73.664001       36.752          120   -204217.99   -204209.08   -275754.38    1.0250408   0.54269768   0.23015431       73.664    63.794896       36.752   -228060.48   -308813.26 
   23200           10    172711.88       73.664    73.664001       36.752          120   -204217.99   -204209.08   -275754.38    1.0250408   0.54269768   0.23015431       73.664    63.794896       36.752   -228060.48   -308813.26 
   23300           10    172711.88       73.664    73.664001       36.752          120   -204217.99   -204209.08   -275754.38    1.0250408   0.54269768   0.23015431       73.664    63.794896       36.752   -228060.48   -308813.26 
   23400           10    172711.88       73.664    73.664001       36.752          120   -204217.99   -204209.08   -275754.38    1.0250408   0.54269768   0.23015431       73.664    63.794896       36.752   -228060.48   -308813.26 
   23500           10    172711.88       73.664    73.664001       36.752          120   -204217.99   -204209.08   -275754.38    1.0250408   0.54269768   0.23015431       73.664    63.794896       36.752   -228060.48   -308813.26 
   23600           10    172711.88       73.664    73.664001       36.752          120   -204217.99   -204209.08   -275754.38    1.0250408   0.54269768   0.23015431       73.664    63.794896       36.752   -228060.48   -308813.26 
   23700           10    172711.88       73.664    73.664001       36.752          120   -204217.99   -204209.08   -275754.38    1.0250408   0.54269768   0.23015431       73.664    63.794896       36.752   -228060.48   -308813.26 
   23800           10    172711.88       73.664    73.664001       36.752          120   -204217.99   -204209.08   -275754.38    1.0250408   0.54269768   0.23015431       73.664    63.794896       36.752   -228060.48   -308813.26 
   23900           10    172711.88       73.664    73.664001       36.752          120   -204217.99   -204209.08   -275754.38    1.0250408   0.54269768   0.23015431       73.664    63.794896       36.752   -228060.48   -308813.26 
   24000           10    172711.88       73.664    73.664001       36.752          120   -204217.99   -204209.08   -275754.38    1.0250408   0.54269768   0.23015431       73.664    63.794896       36.752   -228060.48   -308813.26 
   24100           10    172711.88       73.664    73.664001       36.752          120   -204217.99   -204209.08   -275754.38    1.0250408   0.54269768   0.23015431       73.664    63.794896       36.752   -228060.48   -308813.26 
   24200           10    172711.88       73.664    73.664001       36.752          120   -204217.99   -204209.08   -275754.38    1.0250408   0.54269768   0.23015431       73.664    63.794896       36.752   -228060.48   -308813.26 
   24300           10    172711.88       73.664    73.664001       36.752          120   -204217.99   -204209.08   -275754.38    1.0250408   0.54269768   0.23015431       73.664    63.794896       36.752   -228060.48   -308813.26 
   24400           10    172711.88       73.664    73.664001       36.752          120   -204217.99   -204209.08   -275754.38    1.0250408   0.54269768   0.23015431       73.664    63.794896       36.752   -228060.48   -308813.26 
   24500           10    172711.88       73.664    73.664001       36.752          120   -204217.99   -204209.08   -275754.38    1.0250408   0.54269768   0.23015431       73.664    63.794896       36.752   -228060.48   -308813.26 
   24600           10    172711.88       73.664    73.664001       36.752          120   -204217.99   -204209.08   -275754.38    1.0250408   0.54269768   0.23015431       73.664    63.794896       36.752   -228060.48   -308813.26 
   24700           10    172711.88       73.664    73.664001       36.752          120   -204217.99   -204209.08   -275754.38    1.0250408   0.54269768   0.23015431       73.664    63.794896       36.752   -228060.48   -308813.26 
   24800           10    172711.88       73.664    73.664001       36.752          120   -204217.99   -204209.08   -275754.38    1.0250408   0.54269768   0.23015431       73.664    63.794896       36.752   -228060.48   -308813.26 
   24900           10    172711.88       73.664    73.664001       36.752          120   -204217.99   -204209.08   -275754.38    1.0250408   0.54269768   0.23015431       73.664    63.794896       36.752   -228060.48   -308813.26 
   25000           10    172711.88       73.664    73.664001       36.752          120   -204217.99   -204209.08   -275754.38    1.0250408   0.54269768   0.23015431       73.664    63.794896       36.752   -228060.48   -308813.26 
   25100           10    172711.88       73.664    73.664001       36.752          120   -204217.99   -204209.08   -275754.38    1.0250408   0.54269768   0.23015431       73.664    63.794896       36.752   -228060.48   -308813.26 
   25200           10    172711.88       73.664    73.664001       36.752          120   -204217.99   -204209.08   -275754.38    1.0250408   0.54269768   0.23015431       73.664    63.794896       36.752   -228060.48   -308813.26 
   25300           10    172711.88       73.664    73.664001       36.752          120   -204217.99   -204209.08   -275754.38    1.0250408   0.54269768   0.23015431       73.664    63.794896       36.752   -228060.48   -308813.26 
   25400           10    172711.88       73.664    73.664001       36.752          120   -204217.99   -204209.08   -275754.38    1.0250408   0.54269768   0.23015431       73.664    63.794896       36.752   -228060.48   -308813.26 
   25500           10    172711.88       73.664    73.664001       36.752          120   -204217.99   -204209.08   -275754.38    1.0250408   0.54269768   0.23015431       73.664    63.794896       36.752   -228060.48   -308813.26 
   25600           10    172711.88       73.664    73.664001       36.752          120   -204217.99   -204209.08   -275754.38    1.0250408   0.54269768   0.23015431       73.664    63.794896       36.752   -228060.48   -308813.26 
   25700           10    172711.88       73.664    73.664001       36.752          120   -204217.99   -204209.08   -275754.38    1.0250408   0.54269768   0.23015431       73.664    63.794896       36.752   -228060.48   -308813.26 
   25800           10    172711.88       73.664    73.664001       36.752          120   -204217.99   -204209.08   -275754.38    1.0250408   0.54269768   0.23015431       73.664    63.794896       36.752   -228060.48   -308813.26 
   25900           10    172711.88       73.664    73.664001       36.752          120   -204217.99   -204209.08   -275754.38    1.0250408   0.54269768   0.23015431       73.664    63.794896       36.752   -228060.48   -308813.26 
   26000           10    172711.88       73.664    73.664001       36.752          120   -204217.99   -204209.08   -275754.38    1.0250408   0.54269768   0.23015431       73.664    63.794896       36.752   -228060.48   -308813.26 
   26100           10    172711.88       73.664    73.664001       36.752          120   -204217.99   -204209.08   -275754.38    1.0250408   0.54269768   0.23015431       73.664    63.794896       36.752   -228060.48   -308813.26 
   26200           10    172711.88       73.664    73.664001       36.752          120   -204217.99   -204209.08   -275754.38    1.0250408   0.54269768   0.23015431       73.664    63.794896       36.752   -228060.48   -308813.26 
   26300           10    172711.88       73.664    73.664001       36.752          120   -204217.99   -204209.08   -275754.38    1.0250408   0.54269768   0.23015431       73.664    63.794896       36.752   -228060.48   -308813.26 
   26400           10    172711.88       73.664    73.664001       36.752          120   -204217.99   -204209.08   -275754.38    1.0250408   0.54269768   0.23015431       73.664    63.794896       36.752   -228060.48   -308813.26 
   26500           10    172711.88       73.664    73.664001       36.752          120   -204217.99   -204209.08   -275754.38    1.0250408   0.54269768   0.23015431       73.664    63.794896       36.752   -228060.48   -308813.26 
   26600           10    172711.88       73.664    73.664001       36.752          120   -204217.99   -204209.08   -275754.38    1.0250408   0.54269768   0.23015431       73.664    63.794896       36.752   -228060.48   -308813.26 
   26700           10    172711.88       73.664    73.664001       36.752          120   -204217.99   -204209.08   -275754.38    1.0250408   0.54269768   0.23015431       73.664    63.794896       36.752   -228060.48   -308813.26 
   26800           10    172711.88       73.664    73.664001       36.752          120   -204217.99   -204209.08   -275754.38    1.0250408   0.54269768   0.23015431       73.664    63.794896       36.752   -228060.48   -308813.26 
   26900           10    172711.88       73.664    73.664001       36.752          120   -204217.99   -204209.08   -275754.38    1.0250408   0.54269768   0.23015431       73.664    63.794896       36.752   -228060.48   -308813.26 
   27000           10    172711.88       73.664    73.664001       36.752          120   -204217.99   -204209.08   -275754.38    1.0250408   0.54269768   0.23015431       73.664    63.794896       36.752   -228060.48   -308813.26 
   27100           10    172711.88       73.664    73.664001       36.752          120   -204217.99   -204209.08   -275754.38    1.0250408   0.54269768   0.23015431       73.664    63.794896       36.752   -228060.48   -308813.26 
   27200           10    172711.88       73.664    73.664001       36.752          120   -204217.99   -204209.08   -275754.38    1.0250408   0.54269768   0.23015431       73.664    63.794896       36.752   -228060.48   -308813.26 
   27300           10    172711.88       73.664    73.664001       36.752          120   -204217.99   -204209.08   -275754.38    1.0250408   0.54269768   0.23015431       73.664    63.794896       36.752   -228060.48   -308813.26 
   27400           10    172711.88       73.664    73.664001       36.752          120   -204217.99   -204209.08   -275754.38    1.0250408   0.54269768   0.23015431       73.664    63.794896       36.752   -228060.48   -308813.26 
   27500           10    172711.88       73.664    73.664001       36.752          120   -204217.99   -204209.08   -275754.38    1.0250408   0.54269768   0.23015431       73.664    63.794896       36.752   -228060.48   -308813.26 
   27600           10    172711.88       73.664    73.664001       36.752          120   -204217.99   -204209.08   -275754.38    1.0250408   0.54269768   0.23015431       73.664    63.794896       36.752   -228060.48   -308813.26 
   27700           10    172711.88       73.664    73.664001       36.752          120   -204217.99   -204209.08   -275754.38    1.0250408   0.54269768   0.23015431       73.664    63.794896       36.752   -228060.48   -308813.26 
   27800           10    172711.88       73.664    73.664001       36.752          120   -204217.99   -204209.08   -275754.38    1.0250408   0.54269768   0.23015431       73.664    63.794896       36.752   -228060.48   -308813.26 
   27900           10    172711.88       73.664    73.664001       36.752          120   -204217.99   -204209.08   -275754.38    1.0250408   0.54269768   0.23015431       73.664    63.794896       36.752   -228060.48   -308813.26 
   28000           10    172711.88       73.664    73.664001       36.752          120   -204217.99   -204209.08   -275754.38    1.0250408   0.54269768   0.23015431       73.664    63.794896       36.752   -228060.48   -308813.26 
   28100           10    172711.88       73.664    73.664001       36.752          120   -204217.99   -204209.08   -275754.38    1.0250408   0.54269768   0.23015431       73.664    63.794896       36.752   -228060.48   -308813.26 
   28200           10    172711.88       73.664    73.664001       36.752          120   -204217.99   -204209.08   -275754.38    1.0250408   0.54269768   0.23015431       73.664    63.794896       36.752   -228060.48   -308813.26 
   28300           10    172711.88       73.664    73.664001       36.752          120   -204217.99   -204209.08   -275754.38    1.0250408   0.54269768   0.23015431       73.664    63.794896       36.752   -228060.48   -308813.26 
   28400           10    172711.88       73.664    73.664001       36.752          120   -204217.99   -204209.08   -275754.38    1.0250408   0.54269768   0.23015431       73.664    63.794896       36.752   -228060.48   -308813.26 
   28500           10    172711.88       73.664    73.664001       36.752          120   -204217.99   -204209.08   -275754.38    1.0250408   0.54269768   0.23015431       73.664    63.794896       36.752   -228060.48   -308813.26 
   28600           10    172711.88       73.664    73.664001       36.752          120   -204217.99   -204209.08   -275754.38    1.0250408   0.54269768   0.23015431       73.664    63.794896       36.752   -228060.48   -308813.26 
   28700           10    172711.88       73.664    73.664001       36.752          120   -204217.99   -204209.08   -275754.38    1.0250408   0.54269768   0.23015431       73.664    63.794896       36.752   -228060.48   -308813.26 
   28800           10    172711.88       73.664    73.664001       36.752          120   -204217.99   -204209.08   -275754.38    1.0250408   0.54269768   0.23015431       73.664    63.794896       36.752   -228060.48   -308813.26 
   28900           10    172711.88       73.664    73.664001       36.752          120   -204217.99   -204209.08   -275754.38    1.0250408   0.54269768   0.23015431       73.664    63.794896       36.752   -228060.48   -308813.26 
   29000           10    172711.88       73.664    73.664001       36.752          120   -204217.99   -204209.08   -275754.38    1.0250408   0.54269768   0.23015431       73.664    63.794896       36.752   -228060.48   -308813.26 
   29100           10    172711.88       73.664    73.664001       36.752          120   -204217.99   -204209.08   -275754.38    1.0250408   0.54269768   0.23015431       73.664    63.794896       36.752   -228060.48   -308813.26 
   29200           10    172711.88       73.664    73.664001       36.752          120   -204217.99   -204209.08   -275754.38    1.0250408   0.54269768   0.23015431       73.664    63.794896       36.752   -228060.48   -308813.26 
   29300           10    172711.88       73.664    73.664001       36.752          120   -204217.99   -204209.08   -275754.38    1.0250408   0.54269768   0.23015431       73.664    63.794896       36.752   -228060.48   -308813.26 
   29400           10    172711.88       73.664    73.664001       36.752          120   -204217.99   -204209.08   -275754.38    1.0250408   0.54269768   0.23015431       73.664    63.794896       36.752   -228060.48   -308813.26 
   29500           10    172711.88       73.664    73.664001       36.752          120   -204217.99   -204209.08   -275754.38    1.0250408   0.54269768   0.23015431       73.664    63.794896       36.752   -228060.48   -308813.26 
   29600           10    172711.88       73.664    73.664001       36.752          120   -204217.99   -204209.08   -275754.38    1.0250408   0.54269768   0.23015431       73.664    63.794896       36.752   -228060.48   -308813.26 
   29700           10    172711.88       73.664    73.664001       36.752          120   -204217.99   -204209.08   -275754.38    1.0250408   0.54269768   0.23015431       73.664    63.794896       36.752   -228060.48   -308813.26 
   29800           10    172711.88       73.664    73.664001       36.752          120   -204217.99   -204209.08   -275754.38    1.0250408   0.54269768   0.23015431       73.664    63.794896       36.752   -228060.48   -308813.26 
   29900           10    172711.88       73.664    73.664001       36.752          120   -204217.99   -204209.08   -275754.38    1.0250408   0.54269768   0.23015431       73.664    63.794896       36.752   -228060.48   -308813.26 
   30000           10    172711.88       73.664    73.664001       36.752          120   -204217.99   -204209.08   -275754.38    1.0250408   0.54269768   0.23015431       73.664    63.794896       36.752   -228060.48   -308813.26 
   30100           10    172711.88       73.664    73.664001       36.752          120   -204217.99   -204209.08   -275754.38    1.0250408   0.54269768   0.23015431       73.664    63.794896       36.752   -228060.48   -308813.26 
   30200           10    172711.88       73.664    73.664001       36.752          120   -204217.99   -204209.08   -275754.38    1.0250408   0.54269768   0.23015431       73.664    63.794896       36.752   -228060.48   -308813.26 
   30300           10    172711.88       73.664    73.664001       36.752          120   -204217.99   -204209.08   -275754.38    1.0250408   0.54269768   0.23015431       73.664    63.794896       36.752   -228060.48   -308813.26 
   30400           10    172711.88       73.664    73.664001       36.752          120   -204217.99   -204209.08   -275754.38    1.0250408   0.54269768   0.23015431       73.664    63.794896       36.752   -228060.48   -308813.26 
   30500           10    172711.88       73.664    73.664001       36.752          120   -204217.99   -204209.08   -275754.38    1.0250408   0.54269768   0.23015431       73.664    63.794896       36.752   -228060.48   -308813.26 
   30600           10    172711.88       73.664    73.664001       36.752          120   -204217.99   -204209.08   -275754.38    1.0250408   0.54269768   0.23015431       73.664    63.794896       36.752   -228060.48   -308813.26 
   30700           10    172711.88       73.664    73.664001       36.752          120   -204217.99   -204209.08   -275754.38    1.0250408   0.54269768   0.23015431       73.664    63.794896       36.752   -228060.48   -308813.26 
   30800           10    172711.88       73.664    73.664001       36.752          120   -204217.99   -204209.08   -275754.38    1.0250408   0.54269768   0.23015431       73.664    63.794896       36.752   -228060.48   -308813.26 
   30900           10    172711.88       73.664    73.664001       36.752          120   -204217.99   -204209.08   -275754.38    1.0250408   0.54269768   0.23015431       73.664    63.794896       36.752   -228060.48   -308813.26 
   31000           10    172711.88       73.664    73.664001       36.752          120   -204217.99   -204209.08   -275754.38    1.0250408   0.54269768   0.23015431       73.664    63.794896       36.752   -228060.48   -308813.26 
   31100           10    172711.88       73.664    73.664001       36.752          120   -204217.99   -204209.08   -275754.38    1.0250408   0.54269768   0.23015431       73.664    63.794896       36.752   -228060.48   -308813.26 
   31200           10    172711.88       73.664    73.664001       36.752          120   -204217.99   -204209.08   -275754.38    1.0250408   0.54269768   0.23015431       73.664    63.794896       36.752   -228060.48   -308813.26 
   31300           10    172711.88       73.664    73.664001       36.752          120   -204217.99   -204209.08   -275754.38    1.0250408   0.54269768   0.23015431       73.664    63.794896       36.752   -228060.48   -308813.26 
   31400           10    172711.88       73.664    73.664001       36.752          120   -204217.99   -204209.08   -275754.38    1.0250408   0.54269768   0.23015431       73.664    63.794896       36.752   -228060.48   -308813.26 
   31500           10    172711.88       73.664    73.664001       36.752          120   -204217.99   -204209.08   -275754.38    1.0250408   0.54269768   0.23015431       73.664    63.794896       36.752   -228060.48   -308813.26 
   31600           10    172711.88       73.664    73.664001       36.752          120   -204217.99   -204209.08   -275754.38    1.0250408   0.54269768   0.23015431       73.664    63.794896       36.752   -228060.48   -308813.26 
   31700           10    172711.88       73.664    73.664001       36.752          120   -204217.99   -204209.08   -275754.38    1.0250408   0.54269768   0.23015431       73.664    63.794896       36.752   -228060.48   -308813.26 
   31800           10    172711.88       73.664    73.664001       36.752          120   -204217.99   -204209.08   -275754.38    1.0250408   0.54269768   0.23015431       73.664    63.794896       36.752   -228060.48   -308813.26 
   31900           10    172711.88       73.664    73.664001       36.752          120   -204217.99   -204209.08   -275754.38    1.0250408   0.54269768   0.23015431       73.664    63.794896       36.752   -228060.48   -308813.26 
   32000           10    172711.88       73.664    73.664001       36.752          120   -204217.99   -204209.08   -275754.38    1.0250408   0.54269768   0.23015431       73.664    63.794896       36.752   -228060.48   -308813.26 
   32100           10    172711.88       73.664    73.664001       36.752          120   -204217.99   -204209.08   -275754.38    1.0250408   0.54269768   0.23015431       73.664    63.794896       36.752   -228060.48   -308813.26 
   32200           10    172711.88       73.664    73.664001       36.752          120   -204217.99   -204209.08   -275754.38    1.0250408   0.54269768   0.23015431       73.664    63.794896       36.752   -228060.48   -308813.26 
   32300           10    172711.88       73.664    73.664001       36.752          120   -204217.99   -204209.08   -275754.38    1.0250408   0.54269768   0.23015431       73.664    63.794896       36.752   -228060.48   -308813.26 
   32400           10    172711.88       73.664    73.664001       36.752          120   -204217.99   -204209.08   -275754.38    1.0250408   0.54269768   0.23015431       73.664    63.794896       36.752   -228060.48   -308813.26 
   32500           10    172711.88       73.664    73.664001       36.752          120   -204217.99   -204209.08   -275754.38    1.0250408   0.54269768   0.23015431       73.664    63.794896       36.752   -228060.48   -308813.26 
   32600           10    172711.88       73.664    73.664001       36.752          120   -204217.99   -204209.08   -275754.38    1.0250408   0.54269768   0.23015431       73.664    63.794896       36.752   -228060.48   -308813.26 
   32700           10    172711.88       73.664    73.664001       36.752          120   -204217.99   -204209.08   -275754.38    1.0250408   0.54269768   0.23015431       73.664    63.794896       36.752   -228060.48   -308813.26 
   32800           10    172711.88       73.664    73.664001       36.752          120   -204217.99   -204209.08   -275754.38    1.0250408   0.54269768   0.23015431       73.664    63.794896       36.752   -228060.48   -308813.26 
   32900           10    172711.88       73.664    73.664001       36.752          120   -204217.99   -204209.08   -275754.38    1.0250408   0.54269768   0.23015431       73.664    63.794896       36.752   -228060.48   -308813.26 
   33000           10    172711.88       73.664    73.664001       36.752          120   -204217.99   -204209.08   -275754.38    1.0250408   0.54269768   0.23015431       73.664    63.794896       36.752   -228060.48   -308813.26 
   33100           10    172711.88       73.664    73.664001       36.752          120   -204217.99   -204209.08   -275754.38    1.0250408   0.54269768   0.23015431       73.664    63.794896       36.752   -228060.48   -308813.26 
   33200           10    172711.88       73.664    73.664001       36.752          120   -204217.99   -204209.08   -275754.38    1.0250408   0.54269768   0.23015431       73.664    63.794896       36.752   -228060.48   -308813.26 
   33300           10    172711.88       73.664    73.664001       36.752          120   -204217.99   -204209.08   -275754.38    1.0250408   0.54269768   0.23015431       73.664    63.794896       36.752   -228060.48   -308813.26 
   33400           10    172711.88       73.664    73.664001       36.752          120   -204217.99   -204209.08   -275754.38    1.0250408   0.54269768   0.23015431       73.664    63.794896       36.752   -228060.48   -308813.26 
   33500           10    172711.88       73.664    73.664001       36.752          120   -204217.99   -204209.08   -275754.38    1.0250408   0.54269768   0.23015431       73.664    63.794896       36.752   -228060.48   -308813.26 
   33600           10    172711.88       73.664    73.664001       36.752          120   -204217.99   -204209.08   -275754.38    1.0250408   0.54269768   0.23015431       73.664    63.794896       36.752   -228060.48   -308813.26 
   33700           10    172711.88       73.664    73.664001       36.752          120   -204217.99   -204209.08   -275754.38    1.0250408   0.54269768   0.23015431       73.664    63.794896       36.752   -228060.48   -308813.26 
   33800           10    172711.88       73.664    73.664001       36.752          120   -204217.99   -204209.08   -275754.38    1.0250408   0.54269768   0.23015431       73.664    63.794896       36.752   -228060.48   -308813.26 
   33900           10    172711.88       73.664    73.664001       36.752          120   -204217.99   -204209.08   -275754.38    1.0250408   0.54269768   0.23015431       73.664    63.794896       36.752   -228060.48   -308813.26 
   34000           10    172711.88       73.664    73.664001       36.752          120   -204217.99   -204209.08   -275754.38    1.0250408   0.54269768   0.23015431       73.664    63.794896       36.752   -228060.48   -308813.26 
   34100           10    172711.88       73.664    73.664001       36.752          120   -204217.99   -204209.08   -275754.38    1.0250408   0.54269768   0.23015431       73.664    63.794896       36.752   -228060.48   -308813.26 
   34200           10    172711.88       73.664    73.664001       36.752          120   -204217.99   -204209.08   -275754.38    1.0250408   0.54269768   0.23015431       73.664    63.794896       36.752   -228060.48   -308813.26 
   34300           10    172711.88       73.664    73.664001       36.752          120   -204217.99   -204209.08   -275754.38    1.0250408   0.54269768   0.23015431       73.664    63.794896       36.752   -228060.48   -308813.26 
   34400           10    172711.88       73.664    73.664001       36.752          120   -204217.99   -204209.08   -275754.38    1.0250408   0.54269768   0.23015431       73.664    63.794896       36.752   -228060.48   -308813.26 
   34500           10    172711.88       73.664    73.664001       36.752          120   -204217.99   -204209.08   -275754.38    1.0250408   0.54269768   0.23015431       73.664    63.794896       36.752   -228060.48   -308813.26 
   34600           10    172711.88       73.664    73.664001       36.752          120   -204217.99   -204209.08   -275754.38    1.0250408   0.54269768   0.23015431       73.664    63.794896       36.752   -228060.48   -308813.26 
   34700           10    172711.88       73.664    73.664001       36.752          120   -204217.99   -204209.08   -275754.38    1.0250408   0.54269768   0.23015431       73.664    63.794896       36.752   -228060.48   -308813.26 
   34800           10    172711.88       73.664    73.664001       36.752          120   -204217.99   -204209.08   -275754.38    1.0250408   0.54269768   0.23015431       73.664    63.794896       36.752   -228060.48   -308813.26 
   34900           10    172711.88       73.664    73.664001       36.752          120   -204217.99   -204209.08   -275754.38    1.0250408   0.54269768   0.23015431       73.664    63.794896       36.752   -228060.48   -308813.26 
   35000           10    172711.88       73.664    73.664001       36.752          120   -204217.99   -204209.08   -275754.38    1.0250408   0.54269768   0.23015431       73.664    63.794896       36.752   -228060.48   -308813.26 
   35100           10    172711.88       73.664    73.664001       36.752          120   -204217.99   -204209.08   -275754.38    1.0250408   0.54269768   0.23015431       73.664    63.794896       36.752   -228060.48   -308813.26 
   35200           10    172711.88       73.664    73.664001       36.752          120   -204217.99   -204209.08   -275754.38    1.0250408   0.54269768   0.23015431       73.664    63.794896       36.752   -228060.48   -308813.26 
   35300           10    172711.88       73.664    73.664001       36.752          120   -204217.99   -204209.08   -275754.38    1.0250408   0.54269768   0.23015431       73.664    63.794896       36.752   -228060.48   -308813.26 
   35400           10    172711.88       73.664    73.664001       36.752          120   -204217.99   -204209.08   -275754.38    1.0250408   0.54269768   0.23015431       73.664    63.794896       36.752   -228060.48   -308813.26 
   35500           10    172711.88       73.664    73.664001       36.752          120   -204217.99   -204209.08   -275754.38    1.0250408   0.54269768   0.23015431       73.664    63.794896       36.752   -228060.48   -308813.26 
   35600           10    172711.88       73.664    73.664001       36.752          120   -204217.99   -204209.08   -275754.38    1.0250408   0.54269768   0.23015431       73.664    63.794896       36.752   -228060.48   -308813.26 
   35700           10    172711.88       73.664    73.664001       36.752          120   -204217.99   -204209.08   -275754.38    1.0250408   0.54269768   0.23015431       73.664    63.794896       36.752   -228060.48   -308813.26 
   35800           10    172711.88       73.664    73.664001       36.752          120   -204217.99   -204209.08   -275754.38    1.0250408   0.54269768   0.23015431       73.664    63.794896       36.752   -228060.48   -308813.26 
   35900           10    172711.88       73.664    73.664001       36.752          120   -204217.99   -204209.08   -275754.38    1.0250408   0.54269768   0.23015431       73.664    63.794896       36.752   -228060.48   -308813.26 
   36000           10    172711.88       73.664    73.664001       36.752          120   -204217.99   -204209.08   -275754.38    1.0250408   0.54269768   0.23015431       73.664    63.794896       36.752   -228060.48   -308813.26 
   36100           10    172711.88       73.664    73.664001       36.752          120   -204217.99   -204209.08   -275754.38    1.0250408   0.54269768   0.23015431       73.664    63.794896       36.752   -228060.48   -308813.26 
   36200           10    172711.88       73.664    73.664001       36.752          120   -204217.99   -204209.08   -275754.38    1.0250408   0.54269768   0.23015431       73.664    63.794896       36.752   -228060.48   -308813.26 
   36300           10    172711.88       73.664    73.664001       36.752          120   -204217.99   -204209.08   -275754.38    1.0250408   0.54269768   0.23015431       73.664    63.794896       36.752   -228060.48   -308813.26 
   36400           10    172711.88       73.664    73.664001       36.752          120   -204217.99   -204209.08   -275754.38    1.0250408   0.54269768   0.23015431       73.664    63.794896       36.752   -228060.48   -308813.26 
   36500           10    172711.88       73.664    73.664001       36.752          120   -204217.99   -204209.08   -275754.38    1.0250408   0.54269768   0.23015431       73.664    63.794896       36.752   -228060.48   -308813.26 
   36600           10    172711.88       73.664    73.664001       36.752          120   -204217.99   -204209.08   -275754.38    1.0250408   0.54269768   0.23015431       73.664    63.794896       36.752   -228060.48   -308813.26 
   36700           10    172711.88       73.664    73.664001       36.752          120   -204217.99   -204209.08   -275754.38    1.0250408   0.54269768   0.23015431       73.664    63.794896       36.752   -228060.48   -308813.26 
   36800           10    172711.88       73.664    73.664001       36.752          120   -204217.99   -204209.08   -275754.38    1.0250408   0.54269768   0.23015431       73.664    63.794896       36.752   -228060.48   -308813.26 
   36900           10    172711.88       73.664    73.664001       36.752          120   -204217.99   -204209.08   -275754.38    1.0250408   0.54269768   0.23015431       73.664    63.794896       36.752   -228060.48   -308813.26 
   37000           10    172711.88       73.664    73.664001       36.752          120   -204217.99   -204209.08   -275754.38    1.0250408   0.54269768   0.23015431       73.664    63.794896       36.752   -228060.48   -308813.26 
   37100           10    172711.88       73.664    73.664001       36.752          120   -204217.99   -204209.08   -275754.38    1.0250408   0.54269768   0.23015431       73.664    63.794896       36.752   -228060.48   -308813.26 
   37200           10    172711.88       73.664    73.664001       36.752          120   -204217.99   -204209.08   -275754.38    1.0250408   0.54269768   0.23015431       73.664    63.794896       36.752   -228060.48   -308813.26 
   37300           10    172711.88       73.664    73.664001       36.752          120   -204217.99   -204209.08   -275754.38    1.0250408   0.54269768   0.23015431       73.664    63.794896       36.752   -228060.48   -308813.26 
   37400           10    172711.88       73.664    73.664001       36.752          120   -204217.99   -204209.08   -275754.38    1.0250408   0.54269768   0.23015431       73.664    63.794896       36.752   -228060.48   -308813.26 
   37500           10    172711.88       73.664    73.664001       36.752          120   -204217.99   -204209.08   -275754.38    1.0250408   0.54269768   0.23015431       73.664    63.794896       36.752   -228060.48   -308813.26 
   37600           10    172711.88       73.664    73.664001       36.752          120   -204217.99   -204209.08   -275754.38    1.0250408   0.54269768   0.23015431       73.664    63.794896       36.752   -228060.48   -308813.26 
   37700           10    172711.88       73.664    73.664001       36.752          120   -204217.99   -204209.08   -275754.38    1.0250408   0.54269768   0.23015431       73.664    63.794896       36.752   -228060.48   -308813.26 
   37800           10    172711.88       73.664    73.664001       36.752          120   -204217.99   -204209.08   -275754.38    1.0250408   0.54269768   0.23015431       73.664    63.794896       36.752   -228060.48   -308813.26 
   37900           10    172711.88       73.664    73.664001       36.752          120   -204217.99   -204209.08   -275754.38    1.0250408   0.54269768   0.23015431       73.664    63.794896       36.752   -228060.48   -308813.26 
   38000           10    172711.88       73.664    73.664001       36.752          120   -204217.99   -204209.08   -275754.38    1.0250408   0.54269768   0.23015431       73.664    63.794896       36.752   -228060.48   -308813.26 
   38100           10    172711.88       73.664    73.664001       36.752          120   -204217.99   -204209.08   -275754.38    1.0250408   0.54269768   0.23015431       73.664    63.794896       36.752   -228060.48   -308813.26 
   38200           10    172711.88       73.664    73.664001       36.752          120   -204217.99   -204209.08   -275754.38    1.0250408   0.54269768   0.23015431       73.664    63.794896       36.752   -228060.48   -308813.26 
   38300           10    172711.88       73.664    73.664001       36.752          120   -204217.99   -204209.08   -275754.38    1.0250408   0.54269768   0.23015431       73.664    63.794896       36.752   -228060.48   -308813.26 
   38400           10    172711.88       73.664    73.664001       36.752          120   -204217.99   -204209.08   -275754.38    1.0250408   0.54269768   0.23015431       73.664    63.794896       36.752   -228060.48   -308813.26 
   38500           10    172711.88       73.664    73.664001       36.752          120   -204217.99   -204209.08   -275754.38    1.0250408   0.54269768   0.23015431       73.664    63.794896       36.752   -228060.48   -308813.26 
   38600           10    172711.88       73.664    73.664001       36.752          120   -204217.99   -204209.08   -275754.38    1.0250408   0.54269768   0.23015431       73.664    63.794896       36.752   -228060.48   -308813.26 
   38700           10    172711.88       73.664    73.664001       36.752          120   -204217.99   -204209.08   -275754.38    1.0250408   0.54269768   0.23015431       73.664    63.794896       36.752   -228060.48   -308813.26 
   38800           10    172711.88       73.664    73.664001       36.752          120   -204217.99   -204209.08   -275754.38    1.0250408   0.54269768   0.23015431       73.664    63.794896       36.752   -228060.48   -308813.26 
   38900           10    172711.88       73.664    73.664001       36.752          120   -204217.99   -204209.08   -275754.38    1.0250408   0.54269768   0.23015431       73.664    63.794896       36.752   -228060.48   -308813.26 
   39000           10    172711.88       73.664    73.664001       36.752          120   -204217.99   -204209.08   -275754.38    1.0250408   0.54269768   0.23015431       73.664    63.794896       36.752   -228060.48   -308813.26 
   39100           10    172711.88       73.664    73.664001       36.752          120   -204217.99   -204209.08   -275754.38    1.0250408   0.54269768   0.23015431       73.664    63.794896       36.752   -228060.48   -308813.26 
   39200           10    172711.88       73.664    73.664001       36.752          120   -204217.99   -204209.08   -275754.38    1.0250408   0.54269768   0.23015431       73.664    63.794896       36.752   -228060.48   -308813.26 
   39300           10    172711.88       73.664    73.664001       36.752          120   -204217.99   -204209.08   -275754.38    1.0250408   0.54269768   0.23015431       73.664    63.794896       36.752   -228060.48   -308813.26 
   39400           10    172711.88       73.664    73.664001       36.752          120   -204217.99   -204209.08   -275754.38    1.0250408   0.54269768   0.23015431       73.664    63.794896       36.752   -228060.48   -308813.26 
   39500           10    172711.88       73.664    73.664001       36.752          120   -204217.99   -204209.08   -275754.38    1.0250408   0.54269768   0.23015431       73.664    63.794896       36.752   -228060.48   -308813.26 
   39600           10    172711.88       73.664    73.664001       36.752          120   -204217.99   -204209.08   -275754.38    1.0250408   0.54269768   0.23015431       73.664    63.794896       36.752   -228060.48   -308813.26 
   39700           10    172711.88       73.664    73.664001       36.752          120   -204217.99   -204209.08   -275754.38    1.0250408   0.54269768   0.23015431       73.664    63.794896       36.752   -228060.48   -308813.26 
   39800           10    172711.88       73.664    73.664001       36.752          120   -204217.99   -204209.08   -275754.38    1.0250408   0.54269768   0.23015431       73.664    63.794896       36.752   -228060.48   -308813.26 
   39900           10    172711.88       73.664    73.664001       36.752          120   -204217.99   -204209.08   -275754.38    1.0250408   0.54269768   0.23015431       73.664    63.794896       36.752   -228060.48   -308813.26 
   40000           10    172711.88       73.664    73.664001       36.752          120   -204217.99   -204209.08   -275754.38    1.0250408   0.54269768   0.23015431       73.664    63.794896       36.752   -228060.48   -308813.26 
   40100           10    172711.88       73.664    73.664001       36.752          120   -204217.99   -204209.08   -275754.38    1.0250408   0.54269768   0.23015431       73.664    63.794896       36.752   -228060.48   -308813.26 
   40200           10    172711.88       73.664    73.664001       36.752          120   -204217.99   -204209.08   -275754.38    1.0250408   0.54269768   0.23015431       73.664    63.794896       36.752   -228060.48   -308813.26 
   40300           10    172711.88       73.664    73.664001       36.752          120   -204217.99   -204209.08   -275754.38    1.0250408   0.54269768   0.23015431       73.664    63.794896       36.752   -228060.48   -308813.26 
   40400           10    172711.88       73.664    73.664001       36.752          120   -204217.99   -204209.08   -275754.38    1.0250408   0.54269768   0.23015431       73.664    63.794896       36.752   -228060.48   -308813.26 
   40500           10    172711.88       73.664    73.664001       36.752          120   -204217.99   -204209.08   -275754.38    1.0250408   0.54269768   0.23015431       73.664    63.794896       36.752   -228060.48   -308813.26 
   40600           10    172711.88       73.664    73.664001       36.752          120   -204217.99   -204209.08   -275754.38    1.0250408   0.54269768   0.23015431       73.664    63.794896       36.752   -228060.48   -308813.26 
   40700           10    172711.88       73.664    73.664001       36.752          120   -204217.99   -204209.08   -275754.38    1.0250408   0.54269768   0.23015431       73.664    63.794896       36.752   -228060.48   -308813.26 
   40800           10    172711.88       73.664    73.664001       36.752          120   -204217.99   -204209.08   -275754.38    1.0250408   0.54269768   0.23015431       73.664    63.794896       36.752   -228060.48   -308813.26 
   40900           10    172711.88       73.664    73.664001       36.752          120   -204217.99   -204209.08   -275754.38    1.0250408   0.54269768   0.23015431       73.664    63.794896       36.752   -228060.48   -308813.26 
   41000           10    172711.88       73.664    73.664001       36.752          120   -204217.99   -204209.08   -275754.38    1.0250408   0.54269768   0.23015431       73.664    63.794896       36.752   -228060.48   -308813.26 
   41100           10    172711.88       73.664    73.664001       36.752          120   -204217.99   -204209.08   -275754.38    1.0250408   0.54269768   0.23015431       73.664    63.794896       36.752   -228060.48   -308813.26 
   41200           10    172711.88       73.664    73.664001       36.752          120   -204217.99   -204209.08   -275754.38    1.0250408   0.54269768   0.23015431       73.664    63.794896       36.752   -228060.48   -308813.26 
   41300           10    172711.88       73.664    73.664001       36.752          120   -204217.99   -204209.08   -275754.38    1.0250408   0.54269768   0.23015431       73.664    63.794896       36.752   -228060.48   -308813.26 
   41400           10    172711.88       73.664    73.664001       36.752          120   -204217.99   -204209.08   -275754.38    1.0250408   0.54269768   0.23015431       73.664    63.794896       36.752   -228060.48   -308813.26 
   41500           10    172711.88       73.664    73.664001       36.752          120   -204217.99   -204209.08   -275754.38    1.0250408   0.54269768   0.23015431       73.664    63.794896       36.752   -228060.48   -308813.26 
   41600           10    172711.88       73.664    73.664001       36.752          120   -204217.99   -204209.08   -275754.38    1.0250408   0.54269768   0.23015431       73.664    63.794896       36.752   -228060.48   -308813.26 
   41700           10    172711.88       73.664    73.664001       36.752          120   -204217.99   -204209.08   -275754.38    1.0250408   0.54269768   0.23015431       73.664    63.794896       36.752   -228060.48   -308813.26 
   41800           10    172711.88       73.664    73.664001       36.752          120   -204217.99   -204209.08   -275754.38    1.0250408   0.54269768   0.23015431       73.664    63.794896       36.752   -228060.48   -308813.26 
   41900           10    172711.88       73.664    73.664001       36.752          120   -204217.99   -204209.08   -275754.38    1.0250408   0.54269768   0.23015431       73.664    63.794896       36.752   -228060.48   -308813.26 
   42000           10    172711.88       73.664    73.664001       36.752          120   -204217.99   -204209.08   -275754.38    1.0250408   0.54269768   0.23015431       73.664    63.794896       36.752   -228060.48   -308813.26 
   42100           10    172711.88       73.664    73.664001       36.752          120   -204217.99   -204209.08   -275754.38    1.0250408   0.54269768   0.23015431       73.664    63.794896       36.752   -228060.48   -308813.26 
   42200           10    172711.88       73.664    73.664001       36.752          120   -204217.99   -204209.08   -275754.38    1.0250408   0.54269768   0.23015431       73.664    63.794896       36.752   -228060.48   -308813.26 
   42300           10    172711.88       73.664    73.664001       36.752          120   -204217.99   -204209.08   -275754.38    1.0250408   0.54269768   0.23015431       73.664    63.794896       36.752   -228060.48   -308813.26 
   42400           10    172711.88       73.664    73.664001       36.752          120   -204217.99   -204209.08   -275754.38    1.0250408   0.54269768   0.23015431       73.664    63.794896       36.752   -228060.48   -308813.26 
   42500           10    172711.88       73.664    73.664001       36.752          120   -204217.99   -204209.08   -275754.38    1.0250408   0.54269768   0.23015431       73.664    63.794896       36.752   -228060.48   -308813.26 
   42600           10    172711.88       73.664    73.664001       36.752          120   -204217.99   -204209.08   -275754.38    1.0250408   0.54269768   0.23015431       73.664    63.794896       36.752   -228060.48   -308813.26 
   42700           10    172711.88       73.664    73.664001       36.752          120   -204217.99   -204209.08   -275754.38    1.0250408   0.54269768   0.23015431       73.664    63.794896       36.752   -228060.48   -308813.26 
   42800           10    172711.88       73.664    73.664001       36.752          120   -204217.99   -204209.08   -275754.38    1.0250408   0.54269768   0.23015431       73.664    63.794896       36.752   -228060.48   -308813.26 
   42900           10    172711.88       73.664    73.664001       36.752          120   -204217.99   -204209.08   -275754.38    1.0250408   0.54269768   0.23015431       73.664    63.794896       36.752   -228060.48   -308813.26 
   43000           10    172711.88       73.664    73.664001       36.752          120   -204217.99   -204209.08   -275754.38    1.0250408   0.54269768   0.23015431       73.664    63.794896       36.752   -228060.48   -308813.26 
   43100           10    172711.88       73.664    73.664001       36.752          120   -204217.99   -204209.08   -275754.38    1.0250408   0.54269768   0.23015431       73.664    63.794896       36.752   -228060.48   -308813.26 
   43200           10    172711.88       73.664    73.664001       36.752          120   -204217.99   -204209.08   -275754.38    1.0250408   0.54269768   0.23015431       73.664    63.794896       36.752   -228060.48   -308813.26 
   43300           10    172711.88       73.664    73.664001       36.752          120   -204217.99   -204209.08   -275754.38    1.0250408   0.54269768   0.23015431       73.664    63.794896       36.752   -228060.48   -308813.26 
   43400           10    172711.88       73.664    73.664001       36.752          120   -204217.99   -204209.08   -275754.38    1.0250408   0.54269768   0.23015431       73.664    63.794896       36.752   -228060.48   -308813.26 
   43500           10    172711.88       73.664    73.664001       36.752          120   -204217.99   -204209.08   -275754.38    1.0250408   0.54269768   0.23015431       73.664    63.794896       36.752   -228060.48   -308813.26 
   43600           10    172711.88       73.664    73.664001       36.752          120   -204217.99   -204209.08   -275754.38    1.0250408   0.54269768   0.23015431       73.664    63.794896       36.752   -228060.48   -308813.26 
   43700           10    172711.88       73.664    73.664001       36.752          120   -204217.99   -204209.08   -275754.38    1.0250408   0.54269768   0.23015431       73.664    63.794896       36.752   -228060.48   -308813.26 
   43800           10    172711.88       73.664    73.664001       36.752          120   -204217.99   -204209.08   -275754.38    1.0250408   0.54269768   0.23015431       73.664    63.794896       36.752   -228060.48   -308813.26 
   43900           10    172711.88       73.664    73.664001       36.752          120   -204217.99   -204209.08   -275754.38    1.0250408   0.54269768   0.23015431       73.664    63.794896       36.752   -228060.48   -308813.26 
   44000           10    172711.88       73.664    73.664001       36.752          120   -204217.99   -204209.08   -275754.38    1.0250408   0.54269768   0.23015431       73.664    63.794896       36.752   -228060.48   -308813.26 
   44100           10    172711.88       73.664    73.664001       36.752          120   -204217.99   -204209.08   -275754.38    1.0250408   0.54269768   0.23015431       73.664    63.794896       36.752   -228060.48   -308813.26 
   44200           10    172711.88       73.664    73.664001       36.752          120   -204217.99   -204209.08   -275754.38    1.0250408   0.54269768   0.23015431       73.664    63.794896       36.752   -228060.48   -308813.26 
   44300           10    172711.88       73.664    73.664001       36.752          120   -204217.99   -204209.08   -275754.38    1.0250408   0.54269768   0.23015431       73.664    63.794896       36.752   -228060.48   -308813.26 
   44400           10    172711.88       73.664    73.664001       36.752          120   -204217.99   -204209.08   -275754.38    1.0250408   0.54269768   0.23015431       73.664    63.794896       36.752   -228060.48   -308813.26 
   44500           10    172711.88       73.664    73.664001       36.752          120   -204217.99   -204209.08   -275754.38    1.0250408   0.54269768   0.23015431       73.664    63.794896       36.752   -228060.48   -308813.26 
   44600           10    172711.88       73.664    73.664001       36.752          120   -204217.99   -204209.08   -275754.38    1.0250408   0.54269768   0.23015431       73.664    63.794896       36.752   -228060.48   -308813.26 
   44700           10    172711.88       73.664    73.664001       36.752          120   -204217.99   -204209.08   -275754.38    1.0250408   0.54269768   0.23015431       73.664    63.794896       36.752   -228060.48   -308813.26 
   44800           10    172711.88       73.664    73.664001       36.752          120   -204217.99   -204209.08   -275754.38    1.0250408   0.54269768   0.23015431       73.664    63.794896       36.752   -228060.48   -308813.26 
   44900           10    172711.88       73.664    73.664001       36.752          120   -204217.99   -204209.08   -275754.38    1.0250408   0.54269768   0.23015431       73.664    63.794896       36.752   -228060.48   -308813.26 
   45000           10    172711.88       73.664    73.664001       36.752          120   -204217.99   -204209.08   -275754.38    1.0250408   0.54269768   0.23015431       73.664    63.794896       36.752   -228060.48   -308813.26 
   45100           10    172711.88       73.664    73.664001       36.752          120   -204217.99   -204209.08   -275754.38    1.0250408   0.54269768   0.23015431       73.664    63.794896       36.752   -228060.48   -308813.26 
   45200           10    172711.88       73.664    73.664001       36.752          120   -204217.99   -204209.08   -275754.38    1.0250408   0.54269768   0.23015431       73.664    63.794896       36.752   -228060.48   -308813.26 
   45300           10    172711.88       73.664    73.664001       36.752          120   -204217.99   -204209.08   -275754.38    1.0250408   0.54269768   0.23015431       73.664    63.794896       36.752   -228060.48   -308813.26 
   45400           10    172711.88       73.664    73.664001       36.752          120   -204217.99   -204209.08   -275754.38    1.0250408   0.54269768   0.23015431       73.664    63.794896       36.752   -228060.48   -308813.26 
   45500           10    172711.88       73.664    73.664001       36.752          120   -204217.99   -204209.08   -275754.38    1.0250408   0.54269768   0.23015431       73.664    63.794896       36.752   -228060.48   -308813.26 
   45600           10    172711.88       73.664    73.664001       36.752          120   -204217.99   -204209.08   -275754.38    1.0250408   0.54269768   0.23015431       73.664    63.794896       36.752   -228060.48   -308813.26 
   45700           10    172711.88       73.664    73.664001       36.752          120   -204217.99   -204209.08   -275754.38    1.0250408   0.54269768   0.23015431       73.664    63.794896       36.752   -228060.48   -308813.26 
   45800           10    172711.88       73.664    73.664001       36.752          120   -204217.99   -204209.08   -275754.38    1.0250408   0.54269768   0.23015431       73.664    63.794896       36.752   -228060.48   -308813.26 
   45900           10    172711.88       73.664    73.664001       36.752          120   -204217.99   -204209.08   -275754.38    1.0250408   0.54269768   0.23015431       73.664    63.794896       36.752   -228060.48   -308813.26 
   46000           10    172711.88       73.664    73.664001       36.752          120   -204217.99   -204209.08   -275754.38    1.0250408   0.54269768   0.23015431       73.664    63.794896       36.752   -228060.48   -308813.26 
   46100           10    172711.88       73.664    73.664001       36.752          120   -204217.99   -204209.08   -275754.38    1.0250408   0.54269768   0.23015431       73.664    63.794896       36.752   -228060.48   -308813.26 
   46200           10    172711.88       73.664    73.664001       36.752          120   -204217.99   -204209.08   -275754.38    1.0250408   0.54269768   0.23015431       73.664    63.794896       36.752   -228060.48   -308813.26 
   46300           10    172711.88       73.664    73.664001       36.752          120   -204217.99   -204209.08   -275754.38    1.0250408   0.54269768   0.23015431       73.664    63.794896       36.752   -228060.48   -308813.26 
   46400           10    172711.88       73.664    73.664001       36.752          120   -204217.99   -204209.08   -275754.38    1.0250408   0.54269768   0.23015431       73.664    63.794896       36.752   -228060.48   -308813.26 
   46500           10    172711.88       73.664    73.664001       36.752          120   -204217.99   -204209.08   -275754.38    1.0250408   0.54269768   0.23015431       73.664    63.794896       36.752   -228060.48   -308813.26 
   46600           10    172711.88       73.664    73.664001       36.752          120   -204217.99   -204209.08   -275754.38    1.0250408   0.54269768   0.23015431       73.664    63.794896       36.752   -228060.48   -308813.26 
   46700           10    172711.88       73.664    73.664001       36.752          120   -204217.99   -204209.08   -275754.38    1.0250408   0.54269768   0.23015431       73.664    63.794896       36.752   -228060.48   -308813.26 
   46800           10    172711.88       73.664    73.664001       36.752          120   -204217.99   -204209.08   -275754.38    1.0250408   0.54269768   0.23015431       73.664    63.794896       36.752   -228060.48   -308813.26 
   46900           10    172711.88       73.664    73.664001       36.752          120   -204217.99   -204209.08   -275754.38    1.0250408   0.54269768   0.23015431       73.664    63.794896       36.752   -228060.48   -308813.26 
   47000           10    172711.88       73.664    73.664001       36.752          120   -204217.99   -204209.08   -275754.38    1.0250408   0.54269768   0.23015431       73.664    63.794896       36.752   -228060.48   -308813.26 
   47100           10    172711.88       73.664    73.664001       36.752          120   -204217.99   -204209.08   -275754.38    1.0250408   0.54269768   0.23015431       73.664    63.794896       36.752   -228060.48   -308813.26 
   47200           10    172711.88       73.664    73.664001       36.752          120   -204217.99   -204209.08   -275754.38    1.0250408   0.54269768   0.23015431       73.664    63.794896       36.752   -228060.48   -308813.26 
   47300           10    172711.88       73.664    73.664001       36.752          120   -204217.99   -204209.08   -275754.38    1.0250408   0.54269768   0.23015431       73.664    63.794896       36.752   -228060.48   -308813.26 
   47400           10    172711.88       73.664    73.664001       36.752          120   -204217.99   -204209.08   -275754.38    1.0250408   0.54269768   0.23015431       73.664    63.794896       36.752   -228060.48   -308813.26 
   47500           10    172711.88       73.664    73.664001       36.752          120   -204217.99   -204209.08   -275754.38    1.0250408   0.54269768   0.23015431       73.664    63.794896       36.752   -228060.48   -308813.26 
   47600           10    172711.88       73.664    73.664001       36.752          120   -204217.99   -204209.08   -275754.38    1.0250408   0.54269768   0.23015431       73.664    63.794896       36.752   -228060.48   -308813.26 
   47700           10    172711.88       73.664    73.664001       36.752          120   -204217.99   -204209.08   -275754.38    1.0250408   0.54269768   0.23015431       73.664    63.794896       36.752   -228060.48   -308813.26 
   47800           10    172711.88       73.664    73.664001       36.752          120   -204217.99   -204209.08   -275754.38    1.0250408   0.54269768   0.23015431       73.664    63.794896       36.752   -228060.48   -308813.26 
   47900           10    172711.88       73.664    73.664001       36.752          120   -204217.99   -204209.08   -275754.38    1.0250408   0.54269768   0.23015431       73.664    63.794896       36.752   -228060.48   -308813.26 
   48000           10    172711.88       73.664    73.664001       36.752          120   -204217.99   -204209.08   -275754.38    1.0250408   0.54269768   0.23015431       73.664    63.794896       36.752   -228060.48   -308813.26 
   48100           10    172711.88       73.664    73.664001       36.752          120   -204217.99   -204209.08   -275754.38    1.0250408   0.54269768   0.23015431       73.664    63.794896       36.752   -228060.48   -308813.26 
   48200           10    172711.88       73.664    73.664001       36.752          120   -204217.99   -204209.08   -275754.38    1.0250408   0.54269768   0.23015431       73.664    63.794896       36.752   -228060.48   -308813.26 
   48300           10    172711.88       73.664    73.664001       36.752          120   -204217.99   -204209.08   -275754.38    1.0250408   0.54269768   0.23015431       73.664    63.794896       36.752   -228060.48   -308813.26 
   48400           10    172711.88       73.664    73.664001       36.752          120   -204217.99   -204209.08   -275754.38    1.0250408   0.54269768   0.23015431       73.664    63.794896       36.752   -228060.48   -308813.26 
   48500           10    172711.88       73.664    73.664001       36.752          120   -204217.99   -204209.08   -275754.38    1.0250408   0.54269768   0.23015431       73.664    63.794896       36.752   -228060.48   -308813.26 
   48600           10    172711.88       73.664    73.664001       36.752          120   -204217.99   -204209.08   -275754.38    1.0250408   0.54269768   0.23015431       73.664    63.794896       36.752   -228060.48   -308813.26 
   48700           10    172711.88       73.664    73.664001       36.752          120   -204217.99   -204209.08   -275754.38    1.0250408   0.54269768   0.23015431       73.664    63.794896       36.752   -228060.48   -308813.26 
   48800           10    172711.88       73.664    73.664001       36.752          120   -204217.99   -204209.08   -275754.38    1.0250408   0.54269768   0.23015431       73.664    63.794896       36.752   -228060.48   -308813.26 
   48900           10    172711.88       73.664    73.664001       36.752          120   -204217.99   -204209.08   -275754.38    1.0250408   0.54269768   0.23015431       73.664    63.794896       36.752   -228060.48   -308813.26 
   49000           10    172711.88       73.664    73.664001       36.752          120   -204217.99   -204209.08   -275754.38    1.0250408   0.54269768   0.23015431       73.664    63.794896       36.752   -228060.48   -308813.26 
   49100           10    172711.88       73.664    73.664001       36.752          120   -204217.99   -204209.08   -275754.38    1.0250408   0.54269768   0.23015431       73.664    63.794896       36.752   -228060.48   -308813.26 
   49200           10    172711.88       73.664    73.664001       36.752          120   -204217.99   -204209.08   -275754.38    1.0250408   0.54269768   0.23015431       73.664    63.794896       36.752   -228060.48   -308813.26 
   49300           10    172711.88       73.664    73.664001       36.752          120   -204217.99   -204209.08   -275754.38    1.0250408   0.54269768   0.23015431       73.664    63.794896       36.752   -228060.48   -308813.26 
   49400           10    172711.88       73.664    73.664001       36.752          120   -204217.99   -204209.08   -275754.38    1.0250408   0.54269768   0.23015431       73.664    63.794896       36.752   -228060.48   -308813.26 
   49500           10    172711.88       73.664    73.664001       36.752          120   -204217.99   -204209.08   -275754.38    1.0250408   0.54269768   0.23015431       73.664    63.794896       36.752   -228060.48   -308813.26 
   49600           10    172711.88       73.664    73.664001       36.752          120   -204217.99   -204209.08   -275754.38    1.0250408   0.54269768   0.23015431       73.664    63.794896       36.752   -228060.48   -308813.26 
   49700           10    172711.88       73.664    73.664001       36.752          120   -204217.99   -204209.08   -275754.38    1.0250408   0.54269768   0.23015431       73.664    63.794896       36.752   -228060.48   -308813.26 
   49800           10    172711.88       73.664    73.664001       36.752          120   -204217.99   -204209.08   -275754.38    1.0250408   0.54269768   0.23015431       73.664    63.794896       36.752   -228060.48   -308813.26 
   49900           10    172711.88       73.664    73.664001       36.752          120   -204217.99   -204209.08   -275754.38    1.0250408   0.54269768   0.23015431       73.664    63.794896       36.752   -228060.48   -308813.26 
   50000           10    172711.88       73.664    73.664001       36.752          120   -204217.99   -204209.08   -275754.38    1.0250408   0.54269768   0.23015431       73.664    63.794896       36.752   -228060.48   -308813.26 
   50100           10    172711.88       73.664    73.664001       36.752          120   -204217.99   -204209.08   -275754.38    1.0250408   0.54269768   0.23015431       73.664    63.794896       36.752   -228060.48   -308813.26 
   50200           10    172711.88       73.664    73.664001       36.752          120   -204217.99   -204209.08   -275754.38    1.0250408   0.54269768   0.23015431       73.664    63.794896       36.752   -228060.48   -308813.26 
   50300           10    172711.88       73.664    73.664001       36.752          120   -204217.99   -204209.08   -275754.38    1.0250408   0.54269768   0.23015431       73.664    63.794896       36.752   -228060.48   -308813.26 
   50400           10    172711.88       73.664    73.664001       36.752          120   -204217.99   -204209.08   -275754.38    1.0250408   0.54269768   0.23015431       73.664    63.794896       36.752   -228060.48   -308813.26 
   50500           10    172711.88       73.664    73.664001       36.752          120   -204217.99   -204209.08   -275754.38    1.0250408   0.54269768   0.23015431       73.664    63.794896       36.752   -228060.48   -308813.26 
   50600           10    172711.88       73.664    73.664001       36.752          120   -204217.99   -204209.08   -275754.38    1.0250408   0.54269768   0.23015431       73.664    63.794896       36.752   -228060.48   -308813.26 
   50700           10    172711.88       73.664    73.664001       36.752          120   -204217.99   -204209.08   -275754.38    1.0250408   0.54269768   0.23015431       73.664    63.794896       36.752   -228060.48   -308813.26 
   50800           10    172711.88       73.664    73.664001       36.752          120   -204217.99   -204209.08   -275754.38    1.0250408   0.54269768   0.23015431       73.664    63.794896       36.752   -228060.48   -308813.26 
   50900           10    172711.88       73.664    73.664001       36.752          120   -204217.99   -204209.08   -275754.38    1.0250408   0.54269768   0.23015431       73.664    63.794896       36.752   -228060.48   -308813.26 
   51000           10    172711.88       73.664    73.664001       36.752          120   -204217.99   -204209.08   -275754.38    1.0250408   0.54269768   0.23015431       73.664    63.794896       36.752   -228060.48   -308813.26 
   51100           10    172711.88       73.664    73.664001       36.752          120   -204217.99   -204209.08   -275754.38    1.0250408   0.54269768   0.23015431       73.664    63.794896       36.752   -228060.48   -308813.26 
   51200           10    172711.88       73.664    73.664001       36.752          120   -204217.99   -204209.08   -275754.38    1.0250408   0.54269768   0.23015431       73.664    63.794896       36.752   -228060.48   -308813.26 
   51300           10    172711.88       73.664    73.664001       36.752          120   -204217.99   -204209.08   -275754.38    1.0250408   0.54269768   0.23015431       73.664    63.794896       36.752   -228060.48   -308813.26 
   51400           10    172711.88       73.664    73.664001       36.752          120   -204217.99   -204209.08   -275754.38    1.0250408   0.54269768   0.23015431       73.664    63.794896       36.752   -228060.48   -308813.26 
   51500           10    172711.88       73.664    73.664001       36.752          120   -204217.99   -204209.08   -275754.38    1.0250408   0.54269768   0.23015431       73.664    63.794896       36.752   -228060.48   -308813.26 
   51600           10    172711.88       73.664    73.664001       36.752          120   -204217.99   -204209.08   -275754.38    1.0250408   0.54269768   0.23015431       73.664    63.794896       36.752   -228060.48   -308813.26 
   51700           10    172711.88       73.664    73.664001       36.752          120   -204217.99   -204209.08   -275754.38    1.0250408   0.54269768   0.23015431       73.664    63.794896       36.752   -228060.48   -308813.26 
   51800           10    172711.88       73.664    73.664001       36.752          120   -204217.99   -204209.08   -275754.38    1.0250408   0.54269768   0.23015431       73.664    63.794896       36.752   -228060.48   -308813.26 
   51900           10    172711.88       73.664    73.664001       36.752          120   -204217.99   -204209.08   -275754.38    1.0250408   0.54269768   0.23015431       73.664    63.794896       36.752   -228060.48   -308813.26 
   52000           10    172711.88       73.664    73.664001       36.752          120   -204217.99   -204209.08   -275754.38    1.0250408   0.54269768   0.23015431       73.664    63.794896       36.752   -228060.48   -308813.26 
   52100           10    172711.88       73.664    73.664001       36.752          120   -204217.99   -204209.08   -275754.38    1.0250408   0.54269768   0.23015431       73.664    63.794896       36.752   -228060.48   -308813.26 
   52200           10    172711.88       73.664    73.664001       36.752          120   -204217.99   -204209.08   -275754.38    1.0250408   0.54269768   0.23015431       73.664    63.794896       36.752   -228060.48   -308813.26 
   52300           10    172711.88       73.664    73.664001       36.752          120   -204217.99   -204209.08   -275754.38    1.0250408   0.54269768   0.23015431       73.664    63.794896       36.752   -228060.48   -308813.26 
   52400           10    172711.88       73.664    73.664001       36.752          120   -204217.99   -204209.08   -275754.38    1.0250408   0.54269768   0.23015431       73.664    63.794896       36.752   -228060.48   -308813.26 
   52500           10    172711.88       73.664    73.664001       36.752          120   -204217.99   -204209.08   -275754.38    1.0250408   0.54269768   0.23015431       73.664    63.794896       36.752   -228060.48   -308813.26 
   52600           10    172711.88       73.664    73.664001       36.752          120   -204217.99   -204209.08   -275754.38    1.0250408   0.54269768   0.23015431       73.664    63.794896       36.752   -228060.48   -308813.26 
   52700           10    172711.88       73.664    73.664001       36.752          120   -204217.99   -204209.08   -275754.38    1.0250408   0.54269768   0.23015431       73.664    63.794896       36.752   -228060.48   -308813.26 
   52800           10    172711.88       73.664    73.664001       36.752          120   -204217.99   -204209.08   -275754.38    1.0250408   0.54269768   0.23015431       73.664    63.794896       36.752   -228060.48   -308813.26 
   52900           10    172711.88       73.664    73.664001       36.752          120   -204217.99   -204209.08   -275754.38    1.0250408   0.54269768   0.23015431       73.664    63.794896       36.752   -228060.48   -308813.26 
   53000           10    172711.88       73.664    73.664001       36.752          120   -204217.99   -204209.08   -275754.38    1.0250408   0.54269768   0.23015431       73.664    63.794896       36.752   -228060.48   -308813.26 
   53100           10    172711.88       73.664    73.664001       36.752          120   -204217.99   -204209.08   -275754.38    1.0250408   0.54269768   0.23015431       73.664    63.794896       36.752   -228060.48   -308813.26 
   53200           10    172711.88       73.664    73.664001       36.752          120   -204217.99   -204209.08   -275754.38    1.0250408   0.54269768   0.23015431       73.664    63.794896       36.752   -228060.48   -308813.26 
   53300           10    172711.88       73.664    73.664001       36.752          120   -204217.99   -204209.08   -275754.38    1.0250408   0.54269768   0.23015431       73.664    63.794896       36.752   -228060.48   -308813.26 
   53400           10    172711.88       73.664    73.664001       36.752          120   -204217.99   -204209.08   -275754.38    1.0250408   0.54269768   0.23015431       73.664    63.794896       36.752   -228060.48   -308813.26 
   53500           10    172711.88       73.664    73.664001       36.752          120   -204217.99   -204209.08   -275754.38    1.0250408   0.54269768   0.23015431       73.664    63.794896       36.752   -228060.48   -308813.26 
   53600           10    172711.88       73.664    73.664001       36.752          120   -204217.99   -204209.08   -275754.38    1.0250408   0.54269768   0.23015431       73.664    63.794896       36.752   -228060.48   -308813.26 
   53700           10    172711.88       73.664    73.664001       36.752          120   -204217.99   -204209.08   -275754.38    1.0250408   0.54269768   0.23015431       73.664    63.794896       36.752   -228060.48   -308813.26 
   53800           10    172711.88       73.664    73.664001       36.752          120   -204217.99   -204209.08   -275754.38    1.0250408   0.54269768   0.23015431       73.664    63.794896       36.752   -228060.48   -308813.26 
   53900           10    172711.88       73.664    73.664001       36.752          120   -204217.99   -204209.08   -275754.38    1.0250408   0.54269768   0.23015431       73.664    63.794896       36.752   -228060.48   -308813.26 
   54000           10    172711.88       73.664    73.664001       36.752          120   -204217.99   -204209.08   -275754.38    1.0250408   0.54269768   0.23015431       73.664    63.794896       36.752   -228060.48   -308813.26 
   54100           10    172711.88       73.664    73.664001       36.752          120   -204217.99   -204209.08   -275754.38    1.0250408   0.54269768   0.23015431       73.664    63.794896       36.752   -228060.48   -308813.26 
   54200           10    172711.88       73.664    73.664001       36.752          120   -204217.99   -204209.08   -275754.38    1.0250408   0.54269768   0.23015431       73.664    63.794896       36.752   -228060.48   -308813.26 
   54300           10    172711.88       73.664    73.664001       36.752          120   -204217.99   -204209.08   -275754.38    1.0250408   0.54269768   0.23015431       73.664    63.794896       36.752   -228060.48   -308813.26 
   54400           10    172711.88       73.664    73.664001       36.752          120   -204217.99   -204209.08   -275754.38    1.0250408   0.54269768   0.23015431       73.664    63.794896       36.752   -228060.48   -308813.26 
   54500           10    172711.88       73.664    73.664001       36.752          120   -204217.99   -204209.08   -275754.38    1.0250408   0.54269768   0.23015431       73.664    63.794896       36.752   -228060.48   -308813.26 
   54600           10    172711.88       73.664    73.664001       36.752          120   -204217.99   -204209.08   -275754.38    1.0250408   0.54269768   0.23015431       73.664    63.794896       36.752   -228060.48   -308813.26 
   54700           10    172711.88       73.664    73.664001       36.752          120   -204217.99   -204209.08   -275754.38    1.0250408   0.54269768   0.23015431       73.664    63.794896       36.752   -228060.48   -308813.26 
   54800           10    172711.88       73.664    73.664001       36.752          120   -204217.99   -204209.08   -275754.38    1.0250408   0.54269768   0.23015431       73.664    63.794896       36.752   -228060.48   -308813.26 
   54900           10    172711.88       73.664    73.664001       36.752          120   -204217.99   -204209.08   -275754.38    1.0250408   0.54269768   0.23015431       73.664    63.794896       36.752   -228060.48   -308813.26 
   55000           10    172711.88       73.664    73.664001       36.752          120   -204217.99   -204209.08   -275754.38    1.0250408   0.54269768   0.23015431       73.664    63.794896       36.752   -228060.48   -308813.26 
   55100           10    172711.88       73.664    73.664001       36.752          120   -204217.99   -204209.08   -275754.38    1.0250408   0.54269768   0.23015431       73.664    63.794896       36.752   -228060.48   -308813.26 
   55200           10    172711.88       73.664    73.664001       36.752          120   -204217.99   -204209.08   -275754.38    1.0250408   0.54269768   0.23015431       73.664    63.794896       36.752   -228060.48   -308813.26 
   55300           10    172711.88       73.664    73.664001       36.752          120   -204217.99   -204209.08   -275754.38    1.0250408   0.54269768   0.23015431       73.664    63.794896       36.752   -228060.48   -308813.26 
   55400           10    172711.88       73.664    73.664001       36.752          120   -204217.99   -204209.08   -275754.38    1.0250408   0.54269768   0.23015431       73.664    63.794896       36.752   -228060.48   -308813.26 
   55500           10    172711.88       73.664    73.664001       36.752          120   -204217.99   -204209.08   -275754.38    1.0250408   0.54269768   0.23015431       73.664    63.794896       36.752   -228060.48   -308813.26 
   55600           10    172711.88       73.664    73.664001       36.752          120   -204217.99   -204209.08   -275754.38    1.0250408   0.54269768   0.23015431       73.664    63.794896       36.752   -228060.48   -308813.26 
   55700           10    172711.88       73.664    73.664001       36.752          120   -204217.99   -204209.08   -275754.38    1.0250408   0.54269768   0.23015431       73.664    63.794896       36.752   -228060.48   -308813.26 
   55800           10    172711.88       73.664    73.664001       36.752          120   -204217.99   -204209.08   -275754.38    1.0250408   0.54269768   0.23015431       73.664    63.794896       36.752   -228060.48   -308813.26 
   55900           10    172711.88       73.664    73.664001       36.752          120   -204217.99   -204209.08   -275754.38    1.0250408   0.54269768   0.23015431       73.664    63.794896       36.752   -228060.48   -308813.26 
   56000           10    172711.88       73.664    73.664001       36.752          120   -204217.99   -204209.08   -275754.38    1.0250408   0.54269768   0.23015431       73.664    63.794896       36.752   -228060.48   -308813.26 
   56100           10    172711.88       73.664    73.664001       36.752          120   -204217.99   -204209.08   -275754.38    1.0250408   0.54269768   0.23015431       73.664    63.794896       36.752   -228060.48   -308813.26 
   56200           10    172711.88       73.664    73.664001       36.752          120   -204217.99   -204209.08   -275754.38    1.0250408   0.54269768   0.23015431       73.664    63.794896       36.752   -228060.48   -308813.26 
   56300           10    172711.88       73.664    73.664001       36.752          120   -204217.99   -204209.08   -275754.38    1.0250408   0.54269768   0.23015431       73.664    63.794896       36.752   -228060.48   -308813.26 
   56400           10    172711.88       73.664    73.664001       36.752          120   -204217.99   -204209.08   -275754.38    1.0250408   0.54269768   0.23015431       73.664    63.794896       36.752   -228060.48   -308813.26 
   56500           10    172711.88       73.664    73.664001       36.752          120   -204217.99   -204209.08   -275754.38    1.0250408   0.54269768   0.23015431       73.664    63.794896       36.752   -228060.48   -308813.26 
   56600           10    172711.88       73.664    73.664001       36.752          120   -204217.99   -204209.08   -275754.38    1.0250408   0.54269768   0.23015431       73.664    63.794896       36.752   -228060.48   -308813.26 
   56700           10    172711.88       73.664    73.664001       36.752          120   -204217.99   -204209.08   -275754.38    1.0250408   0.54269768   0.23015431       73.664    63.794896       36.752   -228060.48   -308813.26 
   56800           10    172711.88       73.664    73.664001       36.752          120   -204217.99   -204209.08   -275754.38    1.0250408   0.54269768   0.23015431       73.664    63.794896       36.752   -228060.48   -308813.26 
   56900           10    172711.88       73.664    73.664001       36.752          120   -204217.99   -204209.08   -275754.38    1.0250408   0.54269768   0.23015431       73.664    63.794896       36.752   -228060.48   -308813.26 
   57000           10    172711.88       73.664    73.664001       36.752          120   -204217.99   -204209.08   -275754.38    1.0250408   0.54269768   0.23015431       73.664    63.794896       36.752   -228060.48   -308813.26 
   57100           10    172711.88       73.664    73.664001       36.752          120   -204217.99   -204209.08   -275754.38    1.0250408   0.54269768   0.23015431       73.664    63.794896       36.752   -228060.48   -308813.26 
   57200           10    172711.88       73.664    73.664001       36.752          120   -204217.99   -204209.08   -275754.38    1.0250408   0.54269768   0.23015431       73.664    63.794896       36.752   -228060.48   -308813.26 
   57300           10    172711.88       73.664    73.664001       36.752          120   -204217.99   -204209.08   -275754.38    1.0250408   0.54269768   0.23015431       73.664    63.794896       36.752   -228060.48   -308813.26 
   57400           10    172711.88       73.664    73.664001       36.752          120   -204217.99   -204209.08   -275754.38    1.0250408   0.54269768   0.23015431       73.664    63.794896       36.752   -228060.48   -308813.26 
   57500           10    172711.88       73.664    73.664001       36.752          120   -204217.99   -204209.08   -275754.38    1.0250408   0.54269768   0.23015431       73.664    63.794896       36.752   -228060.48   -308813.26 
   57600           10    172711.88       73.664    73.664001       36.752          120   -204217.99   -204209.08   -275754.38    1.0250408   0.54269768   0.23015431       73.664    63.794896       36.752   -228060.48   -308813.26 
   57700           10    172711.88       73.664    73.664001       36.752          120   -204217.99   -204209.08   -275754.38    1.0250408   0.54269768   0.23015431       73.664    63.794896       36.752   -228060.48   -308813.26 
   57800           10    172711.88       73.664    73.664001       36.752          120   -204217.99   -204209.08   -275754.38    1.0250408   0.54269768   0.23015431       73.664    63.794896       36.752   -228060.48   -308813.26 
   57900           10    172711.88       73.664    73.664001       36.752          120   -204217.99   -204209.08   -275754.38    1.0250408   0.54269768   0.23015431       73.664    63.794896       36.752   -228060.48   -308813.26 
   58000           10    172711.88       73.664    73.664001       36.752          120   -204217.99   -204209.08   -275754.38    1.0250408   0.54269768   0.23015431       73.664    63.794896       36.752   -228060.48   -308813.26 
   58100           10    172711.88       73.664    73.664001       36.752          120   -204217.99   -204209.08   -275754.38    1.0250408   0.54269768   0.23015431       73.664    63.794896       36.752   -228060.48   -308813.26 
   58200           10    172711.88       73.664    73.664001       36.752          120   -204217.99   -204209.08   -275754.38    1.0250408   0.54269768   0.23015431       73.664    63.794896       36.752   -228060.48   -308813.26 
   58300           10    172711.88       73.664    73.664001       36.752          120   -204217.99   -204209.08   -275754.38    1.0250408   0.54269768   0.23015431       73.664    63.794896       36.752   -228060.48   -308813.26 
   58400           10    172711.88       73.664    73.664001       36.752          120   -204217.99   -204209.08   -275754.38    1.0250408   0.54269768   0.23015431       73.664    63.794896       36.752   -228060.48   -308813.26 
   58500           10    172711.88       73.664    73.664001       36.752          120   -204217.99   -204209.08   -275754.38    1.0250408   0.54269768   0.23015431       73.664    63.794896       36.752   -228060.48   -308813.26 
   58600           10    172711.88       73.664    73.664001       36.752          120   -204217.99   -204209.08   -275754.38    1.0250408   0.54269768   0.23015431       73.664    63.794896       36.752   -228060.48   -308813.26 
   58700           10    172711.88       73.664    73.664001       36.752          120   -204217.99   -204209.08   -275754.38    1.0250408   0.54269768   0.23015431       73.664    63.794896       36.752   -228060.48   -308813.26 
   58800           10    172711.88       73.664    73.664001       36.752          120   -204217.99   -204209.08   -275754.38    1.0250408   0.54269768   0.23015431       73.664    63.794896       36.752   -228060.48   -308813.26 
   58900           10    172711.88       73.664    73.664001       36.752          120   -204217.99   -204209.08   -275754.38    1.0250408   0.54269768   0.23015431       73.664    63.794896       36.752   -228060.48   -308813.26 
   59000           10    172711.88       73.664    73.664001       36.752          120   -204217.99   -204209.08   -275754.38    1.0250408   0.54269768   0.23015431       73.664    63.794896       36.752   -228060.48   -308813.26 
   59100           10    172711.88       73.664    73.664001       36.752          120   -204217.99   -204209.08   -275754.38    1.0250408   0.54269768   0.23015431       73.664    63.794896       36.752   -228060.48   -308813.26 
   59200           10    172711.88       73.664    73.664001       36.752          120   -204217.99   -204209.08   -275754.38    1.0250408   0.54269768   0.23015431       73.664    63.794896       36.752   -228060.48   -308813.26 
   59300           10    172711.88       73.664    73.664001       36.752          120   -204217.99   -204209.08   -275754.38    1.0250408   0.54269768   0.23015431       73.664    63.794896       36.752   -228060.48   -308813.26 
   59400           10    172711.88       73.664    73.664001       36.752          120   -204217.99   -204209.08   -275754.38    1.0250408   0.54269768   0.23015431       73.664    63.794896       36.752   -228060.48   -308813.26 
   59500           10    172711.88       73.664    73.664001       36.752          120   -204217.99   -204209.08   -275754.38    1.0250408   0.54269768   0.23015431       73.664    63.794896       36.752   -228060.48   -308813.26 
   59600           10    172711.88       73.664    73.664001       36.752          120   -204217.99   -204209.08   -275754.38    1.0250408   0.54269768   0.23015431       73.664    63.794896       36.752   -228060.48   -308813.26 
   59700           10    172711.88       73.664    73.664001       36.752          120   -204217.99   -204209.08   -275754.38    1.0250408   0.54269768   0.23015431       73.664    63.794896       36.752   -228060.48   -308813.26 
   59800           10    172711.88       73.664    73.664001       36.752          120   -204217.99   -204209.08   -275754.38    1.0250408   0.54269768   0.23015431       73.664    63.794896       36.752   -228060.48   -308813.26 
   59900           10    172711.88       73.664    73.664001       36.752          120   -204217.99   -204209.08   -275754.38    1.0250408   0.54269768   0.23015431       73.664    63.794896       36.752   -228060.48   -308813.26 
   60000           10    172711.88       73.664    73.664001       36.752          120   -204217.99   -204209.08   -275754.38    1.0250408   0.54269768   0.23015431       73.664    63.794896       36.752   -228060.48   -308813.26 
   60100           10    172711.88       73.664    73.664001       36.752          120   -204217.99   -204209.08   -275754.38    1.0250408   0.54269768   0.23015431       73.664    63.794896       36.752   -228060.48   -308813.26 
   60200           10    172711.88       73.664    73.664001       36.752          120   -204217.99   -204209.08   -275754.38    1.0250408   0.54269768   0.23015431       73.664    63.794896       36.752   -228060.48   -308813.26 
   60300           10    172711.88       73.664    73.664001       36.752          120   -204217.99   -204209.08   -275754.38    1.0250408   0.54269768   0.23015431       73.664    63.794896       36.752   -228060.48   -308813.26 
   60400           10    172711.88       73.664    73.664001       36.752          120   -204217.99   -204209.08   -275754.38    1.0250408   0.54269768   0.23015431       73.664    63.794896       36.752   -228060.48   -308813.26 
   60500           10    172711.88       73.664    73.664001       36.752          120   -204217.99   -204209.08   -275754.38    1.0250408   0.54269768   0.23015431       73.664    63.794896       36.752   -228060.48   -308813.26 
   60600           10    172711.88       73.664    73.664001       36.752          120   -204217.99   -204209.08   -275754.38    1.0250408   0.54269768   0.23015431       73.664    63.794896       36.752   -228060.48   -308813.26 
   60700           10    172711.88       73.664    73.664001       36.752          120   -204217.99   -204209.08   -275754.38    1.0250408   0.54269768   0.23015431       73.664    63.794896       36.752   -228060.48   -308813.26 
   60800           10    172711.88       73.664    73.664001       36.752          120   -204217.99   -204209.08   -275754.38    1.0250408   0.54269768   0.23015431       73.664    63.794896       36.752   -228060.48   -308813.26 
   60900           10    172711.88       73.664    73.664001       36.752          120   -204217.99   -204209.08   -275754.38    1.0250408   0.54269768   0.23015431       73.664    63.794896       36.752   -228060.48   -308813.26 
   61000           10    172711.88       73.664    73.664001       36.752          120   -204217.99   -204209.08   -275754.38    1.0250408   0.54269768   0.23015431       73.664    63.794896       36.752   -228060.48   -308813.26 
   61100           10    172711.88       73.664    73.664001       36.752          120   -204217.99   -204209.08   -275754.38    1.0250408   0.54269768   0.23015431       73.664    63.794896       36.752   -228060.48   -308813.26 
   61200           10    172711.88       73.664    73.664001       36.752          120   -204217.99   -204209.08   -275754.38    1.0250408   0.54269768   0.23015431       73.664    63.794896       36.752   -228060.48   -308813.26 
   61300           10    172711.88       73.664    73.664001       36.752          120   -204217.99   -204209.08   -275754.38    1.0250408   0.54269768   0.23015431       73.664    63.794896       36.752   -228060.48   -308813.26 
   61400           10    172711.88       73.664    73.664001       36.752          120   -204217.99   -204209.08   -275754.38    1.0250408   0.54269768   0.23015431       73.664    63.794896       36.752   -228060.48   -308813.26 
   61500           10    172711.88       73.664    73.664001       36.752          120   -204217.99   -204209.08   -275754.38    1.0250408   0.54269768   0.23015431       73.664    63.794896       36.752   -228060.48   -308813.26 
   61600           10    172711.88       73.664    73.664001       36.752          120   -204217.99   -204209.08   -275754.38    1.0250408   0.54269768   0.23015431       73.664    63.794896       36.752   -228060.48   -308813.26 
   61700           10    172711.88       73.664    73.664001       36.752          120   -204217.99   -204209.08   -275754.38    1.0250408   0.54269768   0.23015431       73.664    63.794896       36.752   -228060.48   -308813.26 
   61800           10    172711.88       73.664    73.664001       36.752          120   -204217.99   -204209.08   -275754.38    1.0250408   0.54269768   0.23015431       73.664    63.794896       36.752   -228060.48   -308813.26 
   61900           10    172711.88       73.664    73.664001       36.752          120   -204217.99   -204209.08   -275754.38    1.0250408   0.54269768   0.23015431       73.664    63.794896       36.752   -228060.48   -308813.26 
   62000           10    172711.88       73.664    73.664001       36.752          120   -204217.99   -204209.08   -275754.38    1.0250408   0.54269768   0.23015431       73.664    63.794896       36.752   -228060.48   -308813.26 
   62100           10    172711.88       73.664    73.664001       36.752          120   -204217.99   -204209.08   -275754.38    1.0250408   0.54269768   0.23015431       73.664    63.794896       36.752   -228060.48   -308813.26 
   62200           10    172711.88       73.664    73.664001       36.752          120   -204217.99   -204209.08   -275754.38    1.0250408   0.54269768   0.23015431       73.664    63.794896       36.752   -228060.48   -308813.26 
   62300           10    172711.88       73.664    73.664001       36.752          120   -204217.99   -204209.08   -275754.38    1.0250408   0.54269768   0.23015431       73.664    63.794896       36.752   -228060.48   -308813.26 
   62400           10    172711.88       73.664    73.664001       36.752          120   -204217.99   -204209.08   -275754.38    1.0250408   0.54269768   0.23015431       73.664    63.794896       36.752   -228060.48   -308813.26 
   62500           10    172711.88       73.664    73.664001       36.752          120   -204217.99   -204209.08   -275754.38    1.0250408   0.54269768   0.23015431       73.664    63.794896       36.752   -228060.48   -308813.26 
   62600           10    172711.88       73.664    73.664001       36.752          120   -204217.99   -204209.08   -275754.38    1.0250408   0.54269768   0.23015431       73.664    63.794896       36.752   -228060.48   -308813.26 
   62700           10    172711.88       73.664    73.664001       36.752          120   -204217.99   -204209.08   -275754.38    1.0250408   0.54269768   0.23015431       73.664    63.794896       36.752   -228060.48   -308813.26 
   62800           10    172711.88       73.664    73.664001       36.752          120   -204217.99   -204209.08   -275754.38    1.0250408   0.54269768   0.23015431       73.664    63.794896       36.752   -228060.48   -308813.26 
   62900           10    172711.88       73.664    73.664001       36.752          120   -204217.99   -204209.08   -275754.38    1.0250408   0.54269768   0.23015431       73.664    63.794896       36.752   -228060.48   -308813.26 
   63000           10    172711.88       73.664    73.664001       36.752          120   -204217.99   -204209.08   -275754.38    1.0250408   0.54269768   0.23015431       73.664    63.794896       36.752   -228060.48   -308813.26 
   63100           10    172711.88       73.664    73.664001       36.752          120   -204217.99   -204209.08   -275754.38    1.0250408   0.54269768   0.23015431       73.664    63.794896       36.752   -228060.48   -308813.26 
   63200           10    172711.88       73.664    73.664001       36.752          120   -204217.99   -204209.08   -275754.38    1.0250408   0.54269768   0.23015431       73.664    63.794896       36.752   -228060.48   -308813.26 
   63300           10    172711.88       73.664    73.664001       36.752          120   -204217.99   -204209.08   -275754.38    1.0250408   0.54269768   0.23015431       73.664    63.794896       36.752   -228060.48   -308813.26 
   63400           10    172711.88       73.664    73.664001       36.752          120   -204217.99   -204209.08   -275754.38    1.0250408   0.54269768   0.23015431       73.664    63.794896       36.752   -228060.48   -308813.26 
   63500           10    172711.88       73.664    73.664001       36.752          120   -204217.99   -204209.08   -275754.38    1.0250408   0.54269768   0.23015431       73.664    63.794896       36.752   -228060.48   -308813.26 
   63600           10    172711.88       73.664    73.664001       36.752          120   -204217.99   -204209.08   -275754.38    1.0250408   0.54269768   0.23015431       73.664    63.794896       36.752   -228060.48   -308813.26 
   63700           10    172711.88       73.664    73.664001       36.752          120   -204217.99   -204209.08   -275754.38    1.0250408   0.54269768   0.23015431       73.664    63.794896       36.752   -228060.48   -308813.26 
   63800           10    172711.88       73.664    73.664001       36.752          120   -204217.99   -204209.08   -275754.38    1.0250408   0.54269768   0.23015431       73.664    63.794896       36.752   -228060.48   -308813.26 
   63900           10    172711.88       73.664    73.664001       36.752          120   -204217.99   -204209.08   -275754.38    1.0250408   0.54269768   0.23015431       73.664    63.794896       36.752   -228060.48   -308813.26 
   64000           10    172711.88       73.664    73.664001       36.752          120   -204217.99   -204209.08   -275754.38    1.0250408   0.54269768   0.23015431       73.664    63.794896       36.752   -228060.48   -308813.26 
   64100           10    172711.88       73.664    73.664001       36.752          120   -204217.99   -204209.08   -275754.38    1.0250408   0.54269768   0.23015431       73.664    63.794896       36.752   -228060.48   -308813.26 
   64200           10    172711.88       73.664    73.664001       36.752          120   -204217.99   -204209.08   -275754.38    1.0250408   0.54269768   0.23015431       73.664    63.794896       36.752   -228060.48   -308813.26 
   64300           10    172711.88       73.664    73.664001       36.752          120   -204217.99   -204209.08   -275754.38    1.0250408   0.54269768   0.23015431       73.664    63.794896       36.752   -228060.48   -308813.26 
   64400           10    172711.88       73.664    73.664001       36.752          120   -204217.99   -204209.08   -275754.38    1.0250408   0.54269768   0.23015431       73.664    63.794896       36.752   -228060.48   -308813.26 
   64500           10    172711.88       73.664    73.664001       36.752          120   -204217.99   -204209.08   -275754.38    1.0250408   0.54269768   0.23015431       73.664    63.794896       36.752   -228060.48   -308813.26 
   64600           10    172711.88       73.664    73.664001       36.752          120   -204217.99   -204209.08   -275754.38    1.0250408   0.54269768   0.23015431       73.664    63.794896       36.752   -228060.48   -308813.26 
   64700           10    172711.88       73.664    73.664001       36.752          120   -204217.99   -204209.08   -275754.38    1.0250408   0.54269768   0.23015431       73.664    63.794896       36.752   -228060.48   -308813.26 
   64800           10    172711.88       73.664    73.664001       36.752          120   -204217.99   -204209.08   -275754.38    1.0250408   0.54269768   0.23015431       73.664    63.794896       36.752   -228060.48   -308813.26 
   64900           10    172711.88       73.664    73.664001       36.752          120   -204217.99   -204209.08   -275754.38    1.0250408   0.54269768   0.23015431       73.664    63.794896       36.752   -228060.48   -308813.26 
   65000           10    172711.88       73.664    73.664001       36.752          120   -204217.99   -204209.08   -275754.38    1.0250408   0.54269768   0.23015431       73.664    63.794896       36.752   -228060.48   -308813.26 
   65100           10    172711.88       73.664    73.664001       36.752          120   -204217.99   -204209.08   -275754.38    1.0250408   0.54269768   0.23015431       73.664    63.794896       36.752   -228060.48   -308813.26 
   65200           10    172711.88       73.664    73.664001       36.752          120   -204217.99   -204209.08   -275754.38    1.0250408   0.54269768   0.23015431       73.664    63.794896       36.752   -228060.48   -308813.26 
   65300           10    172711.88       73.664    73.664001       36.752          120   -204217.99   -204209.08   -275754.38    1.0250408   0.54269768   0.23015431       73.664    63.794896       36.752   -228060.48   -308813.26 
   65400           10    172711.88       73.664    73.664001       36.752          120   -204217.99   -204209.08   -275754.38    1.0250408   0.54269768   0.23015431       73.664    63.794896       36.752   -228060.48   -308813.26 
   65500           10    172711.88       73.664    73.664001       36.752          120   -204217.99   -204209.08   -275754.38    1.0250408   0.54269768   0.23015431       73.664    63.794896       36.752   -228060.48   -308813.26 
   65600           10    172711.88       73.664    73.664001       36.752          120   -204217.99   -204209.08   -275754.38    1.0250408   0.54269768   0.23015431       73.664    63.794896       36.752   -228060.48   -308813.26 
   65700           10    172711.88       73.664    73.664001       36.752          120   -204217.99   -204209.08   -275754.38    1.0250408   0.54269768   0.23015431       73.664    63.794896       36.752   -228060.48   -308813.26 
   65800           10    172711.88       73.664    73.664001       36.752          120   -204217.99   -204209.08   -275754.38    1.0250408   0.54269768   0.23015431       73.664    63.794896       36.752   -228060.48   -308813.26 
   65900           10    172711.88       73.664    73.664001       36.752          120   -204217.99   -204209.08   -275754.38    1.0250408   0.54269768   0.23015431       73.664    63.794896       36.752   -228060.48   -308813.26 
   66000           10    172711.88       73.664    73.664001       36.752          120   -204217.99   -204209.08   -275754.38    1.0250408   0.54269768   0.23015431       73.664    63.794896       36.752   -228060.48   -308813.26 
   66100           10    172711.88       73.664    73.664001       36.752          120   -204217.99   -204209.08   -275754.38    1.0250408   0.54269768   0.23015431       73.664    63.794896       36.752   -228060.48   -308813.26 
   66200           10    172711.88       73.664    73.664001       36.752          120   -204217.99   -204209.08   -275754.38    1.0250408   0.54269768   0.23015431       73.664    63.794896       36.752   -228060.48   -308813.26 
   66300           10    172711.88       73.664    73.664001       36.752          120   -204217.99   -204209.08   -275754.38    1.0250408   0.54269768   0.23015431       73.664    63.794896       36.752   -228060.48   -308813.26 
   66400           10    172711.88       73.664    73.664001       36.752          120   -204217.99   -204209.08   -275754.38    1.0250408   0.54269768   0.23015431       73.664    63.794896       36.752   -228060.48   -308813.26 
   66500           10    172711.88       73.664    73.664001       36.752          120   -204217.99   -204209.08   -275754.38    1.0250408   0.54269768   0.23015431       73.664    63.794896       36.752   -228060.48   -308813.26 
   66600           10    172711.88       73.664    73.664001       36.752          120   -204217.99   -204209.08   -275754.38    1.0250408   0.54269768   0.23015431       73.664    63.794896       36.752   -228060.48   -308813.26 
   66700           10    172711.88       73.664    73.664001       36.752          120   -204217.99   -204209.08   -275754.38    1.0250408   0.54269768   0.23015431       73.664    63.794896       36.752   -228060.48   -308813.26 
   66800           10    172711.88       73.664    73.664001       36.752          120   -204217.99   -204209.08   -275754.38    1.0250408   0.54269768   0.23015431       73.664    63.794896       36.752   -228060.48   -308813.26 
   66900           10    172711.88       73.664    73.664001       36.752          120   -204217.99   -204209.08   -275754.38    1.0250408   0.54269768   0.23015431       73.664    63.794896       36.752   -228060.48   -308813.26 
   67000           10    172711.88       73.664    73.664001       36.752          120   -204217.99   -204209.08   -275754.38    1.0250408   0.54269768   0.23015431       73.664    63.794896       36.752   -228060.48   -308813.26 
   67100           10    172711.88       73.664    73.664001       36.752          120   -204217.99   -204209.08   -275754.38    1.0250408   0.54269768   0.23015431       73.664    63.794896       36.752   -228060.48   -308813.26 
   67200           10    172711.88       73.664    73.664001       36.752          120   -204217.99   -204209.08   -275754.38    1.0250408   0.54269768   0.23015431       73.664    63.794896       36.752   -228060.48   -308813.26 
   67300           10    172711.88       73.664    73.664001       36.752          120   -204217.99   -204209.08   -275754.38    1.0250408   0.54269768   0.23015431       73.664    63.794896       36.752   -228060.48   -308813.26 
   67400           10    172711.88       73.664    73.664001       36.752          120   -204217.99   -204209.08   -275754.38    1.0250408   0.54269768   0.23015431       73.664    63.794896       36.752   -228060.48   -308813.26 
   67500           10    172711.88       73.664    73.664001       36.752          120   -204217.99   -204209.08   -275754.38    1.0250408   0.54269768   0.23015431       73.664    63.794896       36.752   -228060.48   -308813.26 
   67600           10    172711.88       73.664    73.664001       36.752          120   -204217.99   -204209.08   -275754.38    1.0250408   0.54269768   0.23015431       73.664    63.794896       36.752   -228060.48   -308813.26 
   67700           10    172711.88       73.664    73.664001       36.752          120   -204217.99   -204209.08   -275754.38    1.0250408   0.54269768   0.23015431       73.664    63.794896       36.752   -228060.48   -308813.26 
   67800           10    172711.88       73.664    73.664001       36.752          120   -204217.99   -204209.08   -275754.38    1.0250408   0.54269768   0.23015431       73.664    63.794896       36.752   -228060.48   -308813.26 
   67900           10    172711.88       73.664    73.664001       36.752          120   -204217.99   -204209.08   -275754.38    1.0250408   0.54269768   0.23015431       73.664    63.794896       36.752   -228060.48   -308813.26 
   68000           10    172711.88       73.664    73.664001       36.752          120   -204217.99   -204209.08   -275754.38    1.0250408   0.54269768   0.23015431       73.664    63.794896       36.752   -228060.48   -308813.26 
   68100           10    172711.88       73.664    73.664001       36.752          120   -204217.99   -204209.08   -275754.38    1.0250408   0.54269768   0.23015431       73.664    63.794896       36.752   -228060.48   -308813.26 
   68200           10    172711.88       73.664    73.664001       36.752          120   -204217.99   -204209.08   -275754.38    1.0250408   0.54269768   0.23015431       73.664    63.794896       36.752   -228060.48   -308813.26 
   68300           10    172711.88       73.664    73.664001       36.752          120   -204217.99   -204209.08   -275754.38    1.0250408   0.54269768   0.23015431       73.664    63.794896       36.752   -228060.48   -308813.26 
   68400           10    172711.88       73.664    73.664001       36.752          120   -204217.99   -204209.08   -275754.38    1.0250408   0.54269768   0.23015431       73.664    63.794896       36.752   -228060.48   -308813.26 
   68500           10    172711.88       73.664    73.664001       36.752          120   -204217.99   -204209.08   -275754.38    1.0250408   0.54269768   0.23015431       73.664    63.794896       36.752   -228060.48   -308813.26 
   68600           10    172711.88       73.664    73.664001       36.752          120   -204217.99   -204209.08   -275754.38    1.0250408   0.54269768   0.23015431       73.664    63.794896       36.752   -228060.48   -308813.26 
   68700           10    172711.88       73.664    73.664001       36.752          120   -204217.99   -204209.08   -275754.38    1.0250408   0.54269768   0.23015431       73.664    63.794896       36.752   -228060.48   -308813.26 
   68800           10    172711.88       73.664    73.664001       36.752          120   -204217.99   -204209.08   -275754.38    1.0250408   0.54269768   0.23015431       73.664    63.794896       36.752   -228060.48   -308813.26 
   68900           10    172711.88       73.664    73.664001       36.752          120   -204217.99   -204209.08   -275754.38    1.0250408   0.54269768   0.23015431       73.664    63.794896       36.752   -228060.48   -308813.26 
   69000           10    172711.88       73.664    73.664001       36.752          120   -204217.99   -204209.08   -275754.38    1.0250408   0.54269768   0.23015431       73.664    63.794896       36.752   -228060.48   -308813.26 
   69100           10    172711.88       73.664    73.664001       36.752          120   -204217.99   -204209.08   -275754.38    1.0250408   0.54269768   0.23015431       73.664    63.794896       36.752   -228060.48   -308813.26 
   69200           10    172711.88       73.664    73.664001       36.752          120   -204217.99   -204209.08   -275754.38    1.0250408   0.54269768   0.23015431       73.664    63.794896       36.752   -228060.48   -308813.26 
   69300           10    172711.88       73.664    73.664001       36.752          120   -204217.99   -204209.08   -275754.38    1.0250408   0.54269768   0.23015431       73.664    63.794896       36.752   -228060.48   -308813.26 
   69400           10    172711.88       73.664    73.664001       36.752          120   -204217.99   -204209.08   -275754.38    1.0250408   0.54269768   0.23015431       73.664    63.794896       36.752   -228060.48   -308813.26 
   69500           10    172711.88       73.664    73.664001       36.752          120   -204217.99   -204209.08   -275754.38    1.0250408   0.54269768   0.23015431       73.664    63.794896       36.752   -228060.48   -308813.26 
   69600           10    172711.88       73.664    73.664001       36.752          120   -204217.99   -204209.08   -275754.38    1.0250408   0.54269768   0.23015431       73.664    63.794896       36.752   -228060.48   -308813.26 
   69700           10    172711.88       73.664    73.664001       36.752          120   -204217.99   -204209.08   -275754.38    1.0250408   0.54269768   0.23015431       73.664    63.794896       36.752   -228060.48   -308813.26 
   69800           10    172711.88       73.664    73.664001       36.752          120   -204217.99   -204209.08   -275754.38    1.0250408   0.54269768   0.23015431       73.664    63.794896       36.752   -228060.48   -308813.26 
   69900           10    172711.88       73.664    73.664001       36.752          120   -204217.99   -204209.08   -275754.38    1.0250408   0.54269768   0.23015431       73.664    63.794896       36.752   -228060.48   -308813.26 
   70000           10    172711.88       73.664    73.664001       36.752          120   -204217.99   -204209.08   -275754.38    1.0250408   0.54269768   0.23015431       73.664    63.794896       36.752   -228060.48   -308813.26 
   70100           10    172711.88       73.664    73.664001       36.752          120   -204217.99   -204209.08   -275754.38    1.0250408   0.54269768   0.23015431       73.664    63.794896       36.752   -228060.48   -308813.26 
   70200           10    172711.88       73.664    73.664001       36.752          120   -204217.99   -204209.08   -275754.38    1.0250408   0.54269768   0.23015431       73.664    63.794896       36.752   -228060.48   -308813.26 
   70300           10    172711.88       73.664    73.664001       36.752          120   -204217.99   -204209.08   -275754.38    1.0250408   0.54269768   0.23015431       73.664    63.794896       36.752   -228060.48   -308813.26 
   70400           10    172711.88       73.664    73.664001       36.752          120   -204217.99   -204209.08   -275754.38    1.0250408   0.54269768   0.23015431       73.664    63.794896       36.752   -228060.48   -308813.26 
   70500           10    172711.88       73.664    73.664001       36.752          120   -204217.99   -204209.08   -275754.38    1.0250408   0.54269768   0.23015431       73.664    63.794896       36.752   -228060.48   -308813.26 
   70600           10    172711.88       73.664    73.664001       36.752          120   -204217.99   -204209.08   -275754.38    1.0250408   0.54269768   0.23015431       73.664    63.794896       36.752   -228060.48   -308813.26 
   70700           10    172711.88       73.664    73.664001       36.752          120   -204217.99   -204209.08   -275754.38    1.0250408   0.54269768   0.23015431       73.664    63.794896       36.752   -228060.48   -308813.26 
   70800           10    172711.88       73.664    73.664001       36.752          120   -204217.99   -204209.08   -275754.38    1.0250408   0.54269768   0.23015431       73.664    63.794896       36.752   -228060.48   -308813.26 
   70900           10    172711.88       73.664    73.664001       36.752          120   -204217.99   -204209.08   -275754.38    1.0250408   0.54269768   0.23015431       73.664    63.794896       36.752   -228060.48   -308813.26 
   71000           10    172711.88       73.664    73.664001       36.752          120   -204217.99   -204209.08   -275754.38    1.0250408   0.54269768   0.23015431       73.664    63.794896       36.752   -228060.48   -308813.26 
   71100           10    172711.88       73.664    73.664001       36.752          120   -204217.99   -204209.08   -275754.38    1.0250408   0.54269768   0.23015431       73.664    63.794896       36.752   -228060.48   -308813.26 
   71200           10    172711.88       73.664    73.664001       36.752          120   -204217.99   -204209.08   -275754.38    1.0250408   0.54269768   0.23015431       73.664    63.794896       36.752   -228060.48   -308813.26 
   71300           10    172711.88       73.664    73.664001       36.752          120   -204217.99   -204209.08   -275754.38    1.0250408   0.54269768   0.23015431       73.664    63.794896       36.752   -228060.48   -308813.26 
   71400           10    172711.88       73.664    73.664001       36.752          120   -204217.99   -204209.08   -275754.38    1.0250408   0.54269768   0.23015431       73.664    63.794896       36.752   -228060.48   -308813.26 
   71500           10    172711.88       73.664    73.664001       36.752          120   -204217.99   -204209.08   -275754.38    1.0250408   0.54269768   0.23015431       73.664    63.794896       36.752   -228060.48   -308813.26 
   71600           10    172711.88       73.664    73.664001       36.752          120   -204217.99   -204209.08   -275754.38    1.0250408   0.54269768   0.23015431       73.664    63.794896       36.752   -228060.48   -308813.26 
   71700           10    172711.88       73.664    73.664001       36.752          120   -204217.99   -204209.08   -275754.38    1.0250408   0.54269768   0.23015431       73.664    63.794896       36.752   -228060.48   -308813.26 
   71800           10    172711.88       73.664    73.664001       36.752          120   -204217.99   -204209.08   -275754.38    1.0250408   0.54269768   0.23015431       73.664    63.794896       36.752   -228060.48   -308813.26 
   71900           10    172711.88       73.664    73.664001       36.752          120   -204217.99   -204209.08   -275754.38    1.0250408   0.54269768   0.23015431       73.664    63.794896       36.752   -228060.48   -308813.26 
   72000           10    172711.88       73.664    73.664001       36.752          120   -204217.99   -204209.08   -275754.38    1.0250408   0.54269768   0.23015431       73.664    63.794896       36.752   -228060.48   -308813.26 
   72100           10    172711.88       73.664    73.664001       36.752          120   -204217.99   -204209.08   -275754..38    1.0250408   0.54269768   0.23015431       73.664    63.794896       36.752   -228060.48   -308813.26 
   72200           10    172711.88       73.664    73.664001       36.752          120   -204217.99   -204209.08   -275754.38    1.0250408   0.54269768   0.23015431       73.664    63.794896       36.752   -228060.48   -308813.26 
   72300           10    172711.88       73.664    73.664001       36.752          120   -204217.99   -204209.08   -275754.38    1.0250408   0.54269768   0.23015431       73.664    63.794896       36.752   -228060.48   -308813.26 
   72400           10    172711.88       73.664    73.664001       36.752          120   -204217.99   -204209.08   -275754.38    1.0250408   0.54269768   0.23015431       73.664    63.794896       36.752   -228060.48   -308813.26 
   72500           10    172711.88       73.664    73.664001       36.752          120   -204217.99   -204209.08   -275754.38    1.0250408   0.54269768   0.23015431       73.664    63.794896       36.752   -228060.48   -308813.26 
   72600           10    172711.88       73.664    73.664001       36.752          120   -204217.99   -204209.08   -275754.38    1.0250408   0.54269768   0.23015431       73.664    63.794896       36.752   -228060.48   -308813.26 
   72700           10    172711.88       73.664    73.664001       36.752          120   -204217.99   -204209.08   -275754.38    1.0250408   0.54269768   0.23015431       73.664    63.794896       36.752   -228060.48   -308813.26 
   72800           10    172711.88       73.664    73.664001       36.752          120   -204217.99   -204209.08   -275754.38    1.0250408   0.54269768   0.23015431       73.664    63.794896       36.752   -228060.48   -308813.26 
   72900           10    172711.88       73.664    73.664001       36.752          120   -204217.99   -204209.08   -275754.38    1.0250408   0.54269768   0.23015431       73.664    63.794896       36.752   -228060.48   -308813.26 
   73000           10    172711.88       73.664    73.664001       36.752          120   -204217.99   -204209.08   -275754.38    1.0250408   0.54269768   0.23015431       73.664    63.794896       36.752   -228060.48   -308813.26 
   73100           10    172711.88       73.664    73.664001       36.752          120   -204217.99   -204209.08   -275754.38    1.0250408   0.54269768   0.23015431       73.664    63.794896       36.752   -228060.48   -308813.26 
   73200           10    172711.88       73.664    73.664001       36.752          120   -204217.99   -204209.08   -275754.38    1.0250408   0.54269768   0.23015431       73.664    63.794896       36.752   -228060.48   -308813.26 
   73300           10    172711.88       73.664    73.664001       36.752          120   -204217.99   -204209.08   -275754.38    1.0250408   0.54269768   0.23015431       73.664    63.794896       36.752   -228060.48   -308813.26 
   73400           10    172711.88       73.664    73.664001       36.752          120   -204217.99   -204209.08   -275754.38    1.0250408   0.54269768   0.23015431       73.664    63.794896       36.752   -228060.48   -308813.26 
   73500           10    172711.88       73.664    73.664001       36.752          120   -204217.99   -204209.08   -275754.38    1.0250408   0.54269768   0.23015431       73.664    63.794896       36.752   -228060.48   -308813.26 
   73600           10    172711.88       73.664    73.664001       36.752          120   -204217.99   -204209.08   -275754.38    1.0250408   0.54269768   0.23015431       73.664    63.794896       36.752   -228060.48   -308813.26 
   73700           10    172711.88       73.664    73.664001       36.752          120   -204217.99   -204209.08   -275754.38    1.0250408   0.54269768   0.23015431       73.664    63.794896       36.752   -228060.48   -308813.26 
   73800           10    172711.88       73.664    73.664001       36.752          120   -204217.99   -204209.08   -275754.38    1.0250408   0.54269768   0.23015431       73.664    63.794896       36.752   -228060.48   -308813.26 
   73900           10    172711.88       73.664    73.664001       36.752          120   -204217.99   -204209.08   -275754.38    1.0250408   0.54269768   0.23015431       73.664    63.794896       36.752   -228060.48   -308813.26 
   74000           10    172711.88       73.664    73.664001       36.752          120   -204217.99   -204209.08   -275754.38    1.0250408   0.54269768   0.23015431       73.664    63.794896       36.752   -228060.48   -308813.26 
   74100           10    172711.88       73.664    73.664001       36.752          120   -204217.99   -204209.08   -275754.38    1.0250408   0.54269768   0.23015431       73.664    63.794896       36.752   -228060.48   -308813.26 
   74200           10    172711.88       73.664    73.664001       36.752          120   -204217.99   -204209.08   -275754.38    1.0250408   0.54269768   0.23015431       73.664    63.794896       36.752   -228060.48   -308813.26 
   74300           10    172711.88       73.664    73.664001       36.752          120   -204217.99   -204209.08   -275754.38    1.0250408   0.54269768   0.23015431       73.664    63.794896       36.752   -228060.48   -308813.26 
   74400           10    172711.88       73.664    73.664001       36.752          120   -204217.99   -204209.08   -275754.38    1.0250408   0.54269768   0.23015431       73.664    63.794896       36.752   -228060.48   -308813.26 
   74500           10    172711.88       73.664    73.664001       36.752          120   -204217.99   -204209.08   -275754.38    1.0250408   0.54269768   0.23015431       73.664    63.794896       36.752   -228060.48   -308813.26 
   74600           10    172711.88       73.664    73.664001       36.752          120   -204217.99   -204209.08   -275754.38    1.0250408   0.54269768   0.23015431       73.664    63.794896       36.752   -228060.48   -308813.26 
   74700           10    172711.88       73.664    73.664001       36.752          120   -204217.99   -204209.08   -275754.38    1.0250408   0.54269768   0.23015431       73.664    63.794896       36.752   -228060.48   -308813.26 
   74800           10    172711.88       73.664    73.664001       36.752          120   -204217.99   -204209.08   -275754.38    1.0250408   0.54269768   0.23015431       73.664    63.794896       36.752   -228060.48   -308813.26 
   74900           10    172711.88       73.664    73.664001       36.752          120   -204217.99   -204209.08   -275754.38    1.0250408   0.54269768   0.23015431       73.664    63.794896       36.752   -228060.48   -308813.26 
   75000           10    172711.88       73.664    73.664001       36.752          120   -204217.99   -204209.08   -275754.38    1.0250408   0.54269768   0.23015431       73.664    63.794896       36.752   -228060.48   -308813.26 
   75100           10    172711.88       73.664    73.664001       36.752          120   -204217.99   -204209.08   -275754.38    1.0250408   0.54269768   0.23015431       73.664    63.794896       36.752   -228060.48   -308813.26 
   75200           10    172711.88       73.664    73.664001       36.752          120   -204217.99   -204209.08   -275754.38    1.0250408   0.54269768   0.23015431       73.664    63.794896       36.752   -228060.48   -308813.26 
   75300           10    172711.88       73.664    73.664001       36.752          120   -204217.99   -204209.08   -275754.38    1.0250408   0.54269768   0.23015431       73.664    63.794896       36.752   -228060.48   -308813.26 
   75400           10    172711.88       73.664    73.664001       36.752          120   -204217.99   -204209.08   -275754.38    1.0250408   0.54269768   0.23015431       73.664    63.794896       36.752   -228060.48   -308813.26 
   75500           10    172711.88       73.664    73.664001       36.752          120   -204217.99   -204209.08   -275754.38    1.0250408   0.54269768   0.23015431       73.664    63.794896       36.752   -228060.48   -308813.26 
   75600           10    172711.88       73.664    73.664001       36.752          120   -204217.99   -204209.08   -275754.38    1.0250408   0.54269768   0.23015431       73.664    63.794896       36.752   -228060.48   -308813.26 
   75700           10    172711.88       73.664    73.664001       36.752          120   -204217.99   -204209.08   -275754.38    1.0250408   0.54269768   0.23015431       73.664    63.794896       36.752   -228060.48   -308813.26 
   75800           10    172711.88       73.664    73.664001       36.752          120   -204217.99   -204209.08   -275754.38    1.0250408   0.54269768   0.23015431       73.664    63.794896       36.752   -228060.48   -308813.26 
   75900           10    172711.88       73.664    73.664001       36.752          120   -204217.99   -204209.08   -275754.38    1.0250408   0.54269768   0.23015431       73.664    63.794896       36.752   -228060.48   -308813.26 
   76000           10    172711.88       73.664    73.664001       36.752          120   -204217.99   -204209.08   -275754.38    1.0250408   0.54269768   0.23015431       73.664    63.794896       36.752   -228060.48   -308813.26 
   76100           10    172711.88       73.664    73.664001       36.752          120   -204217.99   -204209.08   -275754.38    1.0250408   0.54269768   0.23015431       73.664    63.794896       36.752   -228060.48   -308813.26 
   76200           10    172711.88       73.664    73.664001       36.752          120   -204217.99   -204209.08   -275754.38    1.0250408   0.54269768   0.23015431       73.664    63.794896       36.752   -228060.48   -308813.26 
   76300           10    172711.88       73.664    73.664001       36.752          120   -204217.99   -204209.08   -275754.38    1.0250408   0.54269768   0.23015431       73.664    63.794896       36.752   -228060.48   -308813.26 
   76400           10    172711.88       73.664    73.664001       36.752          120   -204217.99   -204209.08   -275754.38    1.0250408   0.54269768   0.23015431       73.664    63.794896       36.752   -228060.48   -308813.26 
   76500           10    172711.88       73.664    73.664001       36.752          120   -204217.99   -204209.08   -275754.38    1.0250408   0.54269768   0.23015431       73.664    63.794896       36.752   -228060.48   -308813.26 
   76600           10    172711.88       73.664    73.664001       36.752          120   -204217.99   -204209.08   -275754.38    1.0250408   0.54269768   0.23015431       73.664    63.794896       36.752   -228060.48   -308813.26 
   76700           10    172711.88       73.664    73.664001       36.752          120   -204217.99   -204209.08   -275754.38    1.0250408   0.54269768   0.23015431       73.664    63.794896       36.752   -228060.48   -308813.26 
   76800           10    172711.88       73.664    73.664001       36.752          120   -204217.99   -204209.08   -275754.38    1.0250408   0.54269768   0.23015431       73.664    63.794896       36.752   -228060.48   -308813.26 
   76900           10    172711.88       73.664    73.664001       36.752          120   -204217.99   -204209.08   -275754.38    1.0250408   0.54269768   0.23015431       73.664    63.794896       36.752   -228060.48   -308813.26 
   77000           10    172711.88       73.664    73.664001       36.752          120   -204217.99   -204209.08   -275754.38    1.0250408   0.54269768   0.23015431       73.664    63.794896       36.752   -228060.48   -308813.26 
   77100           10    172711.88       73.664    73.664001       36.752          120   -204217.99   -204209.08   -275754.38    1.0250408   0.54269768   0.23015431       73.664    63.794896       36.752   -228060.48   -308813.26 
   77200           10    172711.88       73.664    73.664001       36.752          120   -204217.99   -204209.08   -275754.38    1.0250408   0.54269768   0.23015431       73.664    63.794896       36.752   -228060.48   -308813.26 
   77300           10    172711.88       73.664    73.664001       36.752          120   -204217.99   -204209.08   -275754.38    1.0250408   0.54269768   0.23015431       73.664    63.794896       36.752   -228060.48   -308813.26 
   77400           10    172711.88       73.664    73.664001       36.752          120   -204217.99   -204209.08   -275754.38    1.0250408   0.54269768   0.23015431       73.664    63.794896       36.752   -228060.48   -308813.26 
   77500           10    172711.88       73.664    73.664001       36.752          120   -204217.99   -204209.08   -275754.38    1.0250408   0.54269768   0.23015431       73.664    63.794896       36.752   -228060.48   -308813.26 
   77600           10    172711.88       73.664    73.664001       36.752          120   -204217.99   -204209.08   -275754.38    1.0250408   0.54269768   0.23015431       73.664    63.794896       36.752   -228060.48   -308813.26 
   77700           10    172711.88       73.664    73.664001       36.752          120   -204217.99   -204209.08   -275754.38    1.0250408   0.54269768   0.23015431       73.664    63.794896       36.752   -228060.48   -308813.26 
   77800           10    172711.88       73.664    73.664001       36.752          120   -204217.99   -204209.08   -275754.38    1.0250408   0.54269768   0.23015431       73.664    63.794896       36.752   -228060.48   -308813.26 
   77900           10    172711.88       73.664    73.664001       36.752          120   -204217.99   -204209.08   -275754.38    1.0250408   0.54269768   0.23015431       73.664    63.794896       36.752   -228060.48   -308813.26 
   78000           10    172711.88       73.664    73.664001       36.752          120   -204217.99   -204209.08   -275754.38    1.0250408   0.54269768   0.23015431       73.664    63.794896       36.752   -228060.48   -308813.26 
   78100           10    172711.88       73.664    73.664001       36.752          120   -204217.99   -204209.08   -275754.38    1.0250408   0.54269768   0.23015431       73.664    63.794896       36.752   -228060.48   -308813.26 
   78200           10    172711.88       73.664    73.664001       36.752          120   -204217.99   -204209.08   -275754.38    1.0250408   0.54269768   0.23015431       73.664    63.794896       36.752   -228060.48   -308813.26 
   78300           10    172711.88       73.664    73.664001       36.752          120   -204217.99   -204209.08   -275754.38    1.0250408   0.54269768   0.23015431       73.664    63.794896       36.752   -228060.48   -308813.26 
   78400           10    172711.88       73.664    73.664001       36.752          120   -204217.99   -204209.08   -275754.38    1.0250408   0.54269768   0.23015431       73.664    63.794896       36.752   -228060.48   -308813.26 
   78500           10    172711.88       73.664    73.664001       36.752          120   -204217.99   -204209.08   -275754.38    1.0250408   0.54269768   0.23015431       73.664    63.794896       36.752   -228060.48   -308813.26 
   78600           10    172711.88       73.664    73.664001       36.752          120   -204217.99   -204209.08   -275754.38    1.0250408   0.54269768   0.23015431       73.664    63.794896       36.752   -228060.48   -308813.26 
   78700           10    172711.88       73.664    73.664001       36.752          120   -204217.99   -204209.08   -275754.38    1.0250408   0.54269768   0.23015431       73.664    63.794896       36.752   -228060.48   -308813.26 
   78800           10    172711.88       73.664    73.664001       36.752          120   -204217.99   -204209.08   -275754.38    1.0250408   0.54269768   0.23015431       73.664    63.794896       36.752   -228060.48   -308813.26 
   78900           10    172711.88       73.664    73.664001       36.752          120   -204217.99   -204209.08   -275754.38    1.0250408   0.54269768   0.23015431       73.664    63.794896       36.752   -228060.48   -308813.26 
   79000           10    172711.88       73.664    73.664001       36.752          120   -204217.99   -204209.08   -275754.38    1.0250408   0.54269768   0.23015431       73.664    63.794896       36.752   -228060.48   -308813.26 
   79100           10    172711.88       73.664    73.664001       36.752          120   -204217.99   -204209.08   -275754.38    1.0250408   0.54269768   0.23015431       73.664    63.794896       36.752   -228060.48   -308813.26 
   79200           10    172711.88       73.664    73.664001       36.752          120   -204217.99   -204209.08   -275754.38    1.0250408   0.54269768   0.23015431       73.664    63.794896       36.752   -228060.48   -308813.26 
   79300           10    172711.88       73.664    73.664001       36.752          120   -204217.99   -204209.08   -275754.38    1.0250408   0.54269768   0.23015431       73.664    63.794896       36.752   -228060.48   -308813.26 
   79400           10    172711.88       73.664    73.664001       36.752          120   -204217.99   -204209.08   -275754.38    1.0250408   0.54269768   0.23015431       73.664    63.794896       36.752   -228060.48   -308813.26 
   79500           10    172711.88       73.664    73.664001       36.752          120   -204217.99   -204209.08   -275754.38    1.0250408   0.54269768   0.23015431       73.664    63.794896       36.752   -228060.48   -308813.26 
   79600           10    172711.88       73.664    73.664001       36.752          120   -204217.99   -204209.08   -275754.38    1.0250408   0.54269768   0.23015431       73.664    63.794896       36.752   -228060.48   -308813.26 
   79700           10    172711.88       73.664    73.664001       36.752          120   -204217.99   -204209.08   -275754.38    1.0250408   0.54269768   0.23015431       73.664    63.794896       36.752   -228060.48   -308813.26 
   79800           10    172711.88       73.664    73.664001       36.752          120   -204217.99   -204209.08   -275754.38    1.0250408   0.54269768   0.23015431       73.664    63.794896       36.752   -228060.48   -308813.26 
   79900           10    172711.88       73.664    73.664001       36.752          120   -204217.99   -204209.08   -275754.38    1.0250408   0.54269768   0.23015431       73.664    63.794896       36.752   -228060.48   -308813.26 
   80000           10    172711.88       73.664    73.664001       36.752          120   -204217.99   -204209.08   -275754.38    1.0250408   0.54269768   0.23015431       73.664    63.794896       36.752   -228060.48   -308813.26 
   80100           10    172711.88       73.664    73.664001       36.752          120   -204217.99   -204209.08   -275754.38    1.0250408   0.54269768   0.23015431       73.664    63.794896       36.752   -228060.48   -308813.26 
   80200           10    172711.88       73.664    73.664001       36.752          120   -204217.99   -204209.08   -275754.38    1.0250408   0.54269768   0.23015431       73.664    63.794896       36.752   -228060.48   -308813.26 
   80300           10    172711.88       73.664    73.664001       36.752          120   -204217.99   -204209.08   -275754.38    1.0250408   0.54269768   0.23015431       73.664    63.794896       36.752   -228060.48   -308813.26 
   80400           10    172711.88       73.664    73.664001       36.752          120   -204217.99   -204209.08   -275754.38    1.0250408   0.54269768   0.23015431       73.664    63.794896       36.752   -228060.48   -308813.26 
   80500           10    172711.88       73.664    73.664001       36.752          120   -204217.99   -204209.08   -275754.38    1.0250408   0.54269768   0.23015431       73.664    63.794896       36.752   -228060.48   -308813.26 
   80600           10    172711.88       73.664    73.664001       36.752          120   -204217.99   -204209.08   -275754.38    1.0250408   0.54269768   0.23015431       73.664    63.794896       36.752   -228060.48   -308813.26 
   80700           10    172711.88       73.664    73.664001       36.752          120   -204217.99   -204209.08   -275754.38    1.0250408   0.54269768   0.23015431       73.664    63.794896       36.752   -228060.48   -308813.26 
   80800           10    172711.88       73.664    73.664001       36.752          120   -204217.99   -204209.08   -275754.38    1.0250408   0.54269768   0.23015431       73.664    63.794896       36.752   -228060.48   -308813.26 
   80900           10    172711.88       73.664    73.664001       36.752          120   -204217.99   -204209.08   -275754.38    1.0250408   0.54269768   0.23015431       73.664    63.794896       36.752   -228060.48   -308813.26 
   81000           10    172711.88       73.664    73.664001       36.752          120   -204217.99   -204209.08   -275754.38    1.0250408   0.54269768   0.23015431       73.664    63.794896       36.752   -228060.48   -308813.26 
   81100           10    172711.88       73.664    73.664001       36.752          120   -204217.99   -204209.08   -275754.38    1.0250408   0.54269768   0.23015431       73.664    63.794896       36.752   -228060.48   -308813.26 
   81200           10    172711.88       73.664    73.664001       36.752          120   -204217.99   -204209.08   -275754.38    1.0250408   0.54269768   0.23015431       73.664    63.794896       36.752   -228060.48   -308813.26 
   81300           10    172711.88       73.664    73.664001       36.752          120   -204217.99   -204209.08   -275754.38    1.0250408   0.54269768   0.23015431       73.664    63.794896       36.752   -228060.48   -308813.26 
   81400           10    172711.88       73.664    73.664001       36.752          120   -204217.99   -204209.08   -275754.38    1.0250408   0.54269768   0.23015431       73.664    63.794896       36.752   -228060.48   -308813.26 
   81500           10    172711.88       73.664    73.664001       36.752          120   -204217.99   -204209.08   -275754.38    1.0250408   0.54269768   0.23015431       73.664    63.794896       36.752   -228060.48   -308813.26 
   81600           10    172711.88       73.664    73.664001       36.752          120   -204217.99   -204209.08   -275754.38    1.0250408   0.54269768   0.23015431       73.664    63.794896       36.752   -228060.48   -308813.26 
   81700           10    172711.88       73.664    73.664001       36.752          120   -204217.99   -204209.08   -275754.38    1.0250408   0.54269768   0.23015431       73.664    63.794896       36.752   -228060.48   -308813.26 
   81800           10    172711.88       73.664    73.664001       36.752          120   -204217.99   -204209.08   -275754.38    1.0250408   0.54269768   0.23015431       73.664    63.794896       36.752   -228060.48   -308813.26 
   81900           10    172711.88       73.664    73.664001       36.752          120   -204217.99   -204209.08   -275754.38    1.0250408   0.54269768   0.23015431       73.664    63.794896       36.752   -228060.48   -308813.26 
   82000           10    172711.88       73.664    73.664001       36.752          120   -204217.99   -204209.08   -275754.38    1.0250408   0.54269768   0.23015431       73.664    63.794896       36.752   -228060.48   -308813.26 
   82100           10    172711.88       73.664    73.664001       36.752          120   -204217.99   -204209.08   -275754.38    1.0250408   0.54269768   0.23015431       73.664    63.794896       36.752   -228060.48   -308813.26 
   82200           10    172711.88       73.664    73.664001       36.752          120   -204217.99   -204209.08   -275754.38    1.0250408   0.54269768   0.23015431       73.664    63.794896       36.752   -228060.48   -308813.26 
   82300           10    172711.88       73.664    73.664001       36.752          120   -204217.99   -204209.08   -275754.38    1.0250408   0.54269768   0.23015431       73.664    63.794896       36.752   -228060.48   -308813.26 
   82400           10    172711.88       73.664    73.664001       36.752          120   -204217.99   -204209.08   -275754.38    1.0250408   0.54269768   0.23015431       73.664    63.794896       36.752   -228060.48   -308813.26 
   82500           10    172711.88       73.664    73.664001       36.752          120   -204217.99   -204209.08   -275754.38    1.0250408   0.54269768   0.23015431       73.664    63.794896       36.752   -228060.48   -308813.26 
   82600           10    172711.88       73.664    73.664001       36.752          120   -204217.99   -204209.08   -275754.38    1.0250408   0.54269768   0.23015431       73.664    63.794896       36.752   -228060.48   -308813.26 
   82700           10    172711.88       73.664    73.664001       36.752          120   -204217.99   -204209.08   -275754.38    1.0250408   0.54269768   0.23015431       73.664    63.794896       36.752   -228060.48   -308813.26 
   82800           10    172711.88       73.664    73.664001       36.752          120   -204217.99   -204209.08   -275754.38    1.0250408   0.54269768   0.23015431       73.664    63.794896       36.752   -228060.48   -308813.26 
   82900           10    172711.88       73.664    73.664001       36.752          120   -204217.99   -204209.08   -275754.38    1.0250408   0.54269768   0.23015431       73.664    63.794896       36.752   -228060.48   -308813.26 
   83000           10    172711.88       73.664    73.664001       36.752          120   -204217.99   -204209.08   -275754.38    1.0250408   0.54269768   0.23015431       73.664    63.794896       36.752   -228060.48   -308813.26 
   83100           10    172711.88       73.664    73.664001       36.752          120   -204217.99   -204209.08   -275754.38    1.0250408   0.54269768   0.23015431       73.664    63.794896       36.752   -228060.48   -308813.26 
   83200           10    172711.88       73.664    73.664001       36.752          120   -204217.99   -204209.08   -275754.38    1.0250408   0.54269768   0.23015431       73.664    63.794896       36.752   -228060.48   -308813.26 
   83300           10    172711.88       73.664    73.664001       36.752          120   -204217.99   -204209.08   -275754.38    1.0250408   0.54269768   0.23015431       73.664    63.794896       36.752   -228060.48   -308813.26 
   83400           10    172711.88       73.664    73.664001       36.752          120   -204217.99   -204209.08   -275754.38    1.0250408   0.54269768   0.23015431       73.664    63.794896       36.752   -228060.48   -308813.26 
   83500           10    172711.88       73.664    73.664001       36.752          120   -204217.99   -204209.08   -275754.38    1.0250408   0.54269768   0.23015431       73.664    63.794896       36.752   -228060.48   -308813.26 
   83600           10    172711.88       73.664    73.664001       36.752          120   -204217.99   -204209.08   -275754.38    1.0250408   0.54269768   0.23015431       73.664    63.794896       36.752   -228060.48   -308813.26 
   83700           10    172711.88       73.664    73.664001       36.752          120   -204217.99   -204209.08   -275754.38    1.0250408   0.54269768   0.23015431       73.664    63.794896       36.752   -228060.48   -308813.26 
   83800           10    172711.88       73.664    73.664001       36.752          120   -204217.99   -204209.08   -275754.38    1.0250408   0.54269768   0.23015431       73.664    63.794896       36.752   -228060.48   -308813.26 
   83900           10    172711.88       73.664    73.664001       36.752          120   -204217.99   -204209.08   -275754.38    1.0250408   0.54269768   0.23015431       73.664    63.794896       36.752   -228060.48   -308813.26 
   84000           10    172711.88       73.664    73.664001       36.752          120   -204217.99   -204209.08   -275754.38    1.0250408   0.54269768   0.23015431       73.664    63.794896       36.752   -228060.48   -308813.26 
   84100           10    172711.88       73.664    73.664001       36.752          120   -204217.99   -204209.08   -275754.38    1.0250408   0.54269768   0.23015431       73.664    63.794896       36.752   -228060.48   -308813.26 
   84200           10    172711.88       73.664    73.664001       36.752          120   -204217.99   -204209.08   -275754.38    1.0250408   0.54269768   0.23015431       73.664    63.794896       36.752   -228060.48   -308813.26 
   84300           10    172711.88       73.664    73.664001       36.752          120   -204217.99   -204209.08   -275754.38    1.0250408   0.54269768   0.23015431       73.664    63.794896       36.752   -228060.48   -308813.26 
   84400           10    172711.88       73.664    73.664001       36.752          120   -204217.99   -204209.08   -275754.38    1.0250408   0.54269768   0.23015431       73.664    63.794896       36.752   -228060.48   -308813.26 
   84500           10    172711.88       73.664    73.664001       36.752          120   -204217.99   -204209.08   -275754.38    1.0250408   0.54269768   0.23015431       73.664    63.794896       36.752   -228060.48   -308813.26 
   84600           10    172711.88       73.664    73.664001       36.752          120   -204217.99   -204209.08   -275754.38    1.0250408   0.54269768   0.23015431       73.664    63.794896       36.752   -228060.48   -308813.26 
   84700           10    172711.88       73.664    73.664001       36.752          120   -204217.99   -204209.08   -275754.38    1.0250408   0.54269768   0.23015431       73.664    63.794896       36.752   -228060.48   -308813.26 
   84800           10    172711.88       73.664    73.664001       36.752          120   -204217.99   -204209.08   -275754.38    1.0250408   0.54269768   0.23015431       73.664    63.794896       36.752   -228060.48   -308813.26 
   84900           10    172711.88       73.664    73.664001       36.752          120   -204217.99   -204209.08   -275754.38    1.0250408   0.54269768   0.23015431       73.664    63.794896       36.752   -228060.48   -308813.26 
   85000           10    172711.88       73.664    73.664001       36.752          120   -204217.99   -204209.08   -275754.38    1.0250408   0.54269768   0.23015431       73.664    63.794896       36.752   -228060.48   -308813.26 
   85100           10    172711.88       73.664    73.664001       36.752          120   -204217.99   -204209.08   -275754.38    1.0250408   0.54269768   0.23015431       73.664    63.794896       36.752   -228060.48   -308813.26 
   85200           10    172711.88       73.664    73.664001       36.752          120   -204217.99   -204209.08   -275754.38    1.0250408   0.54269768   0.23015431       73.664    63.794896       36.752   -228060.48   -308813.26 
   85300           10    172711.88       73.664    73.664001       36.752          120   -204217.99   -204209.08   -275754.38    1.0250408   0.54269768   0.23015431       73.664    63.794896       36.752   -228060.48   -308813.26 
   85400           10    172711.88       73.664    73.664001       36.752          120   -204217.99   -204209.08   -275754.38    1.0250408   0.54269768   0.23015431       73.664    63.794896       36.752   -228060.48   -308813.26 
   85500           10    172711.88       73.664    73.664001       36.752          120   -204217.99   -204209.08   -275754.38    1.0250408   0.54269768   0.23015431       73.664    63.794896       36.752   -228060.48   -308813.26 
   85600           10    172711.88       73.664    73.664001       36.752          120   -204217.99   -204209.08   -275754.38    1.0250408   0.54269768   0.23015431       73.664    63.794896       36.752   -228060.48   -308813.26 
   85700           10    172711.88       73.664    73.664001       36.752          120   -204217.99   -204209.08   -275754.38    1.0250408   0.54269768   0.23015431       73.664    63.794896       36.752   -228060.48   -308813.26 
   85800           10    172711.88       73.664    73.664001       36.752          120   -204217.99   -204209.08   -275754.38    1.0250408   0.54269768   0.23015431       73.664    63.794896       36.752   -228060.48   -308813.26 
   85900           10    172711.88       73.664    73.664001       36.752          120   -204217.99   -204209.08   -275754.38    1.0250408   0.54269768   0.23015431       73.664    63.794896       36.752   -228060.48   -308813.26 
   86000           10    172711.88       73.664    73.664001       36.752          120   -204217.99   -204209.08   -275754.38    1.0250408   0.54269768   0.23015431       73.664    63.794896       36.752   -228060.48   -308813.26 
   86100           10    172711.88       73.664    73.664001       36.752          120   -204217.99   -204209.08   -275754.38    1.0250408   0.54269768   0.23015431       73.664    63.794896       36.752   -228060.48   -308813.26 
   86200           10    172711.88       73.664    73.664001       36.752          120   -204217.99   -204209.08   -275754.38    1.0250408   0.54269768   0.23015431       73.664    63.794896       36.752   -228060.48   -308813.26 
   86300           10    172711.88       73.664    73.664001       36.752          120   -204217.99   -204209.08   -275754.38    1.0250408   0.54269768   0.23015431       73.664    63.794896       36.752   -228060.48   -308813.26 
   86400           10    172711.88       73.664    73.664001       36.752          120   -204217.99   -204209.08   -275754.38    1.0250408   0.54269768   0.23015431       73.664    63.794896       36.752   -228060.48   -308813.26 
   86500           10    172711.88       73.664    73.664001       36.752          120   -204217.99   -204209.08   -275754.38    1.0250408   0.54269768   0.23015431       73.664    63.794896       36.752   -228060.48   -308813.26 
   86600           10    172711.88       73.664    73.664001       36.752          120   -204217.99   -204209.08   -275754.38    1.0250408   0.54269768   0.23015431       73.664    63.794896       36.752   -228060.48   -308813.26 
   86700           10    172711.88       73.664    73.664001       36.752          120   -204217.99   -204209.08   -275754.38    1.0250408   0.54269768   0.23015431       73.664    63.794896       36.752   -228060.48   -308813.26 
   86800           10    172711.88       73.664    73.664001       36.752          120   -204217.99   -204209.08   -275754.38    1.0250408   0.54269768   0.23015431       73.664    63.794896       36.752   -228060.48   -308813.26 
   86900           10    172711.88       73.664    73.664001       36.752          120   -204217.99   -204209.08   -275754.38    1.0250408   0.54269768   0.23015431       73.664    63.794896       36.752   -228060.48   -308813.26 
   87000           10    172711.88       73.664    73.664001       36.752          120   -204217.99   -204209.08   -275754.38    1.0250408   0.54269768   0.23015431       73.664    63.794896       36.752   -228060.48   -308813.26 
   87100           10    172711.88       73.664    73.664001       36.752          120   -204217.99   -204209.08   -275754.38    1.0250408   0.54269768   0.23015431       73.664    63.794896       36.752   -228060.48   -308813.26 
   87200           10    172711.88       73.664    73.664001       36.752          120   -204217.99   -204209.08   -275754.38    1.0250408   0.54269768   0.23015431       73.664    63.794896       36.752   -228060.48   -308813.26 
   87300           10    172711.88       73.664    73.664001       36.752          120   -204217.99   -204209.08   -275754.38    1.0250408   0.54269768   0.23015431       73.664    63.794896       36.752   -228060.48   -308813.26 
   87400           10    172711.88       73.664    73.664001       36.752          120   -204217.99   -204209.08   -275754.38    1.0250408   0.54269768   0.23015431       73.664    63.794896       36.752   -228060.48   -308813.26 
   87500           10    172711.88       73.664    73.664001       36.752          120   -204217.99   -204209.08   -275754.38    1.0250408   0.54269768   0.23015431       73.664    63.794896       36.752   -228060.48   -308813.26 
   87600           10    172711.88       73.664    73.664001       36.752          120   -204217.99   -204209.08   -275754.38    1.0250408   0.54269768   0.23015431       73.664    63.794896       36.752   -228060.48   -308813.26 
   87700           10    172711.88       73.664    73.664001       36.752          120   -204217.99   -204209.08   -275754.38    1.0250408   0.54269768   0.23015431       73.664    63.794896       36.752   -228060.48   -308813.26 
   87800           10    172711.88       73.664    73.664001       36.752          120   -204217.99   -204209.08   -275754.38    1.0250408   0.54269768   0.23015431       73.664    63.794896       36.752   -228060.48   -308813.26 
   87900           10    172711.88       73.664    73.664001       36.752          120   -204217.99   -204209.08   -275754.38    1.0250408   0.54269768   0.23015431       73.664    63.794896       36.752   -228060.48   -308813.26 
   88000           10    172711.88       73.664    73.664001       36.752          120   -204217.99   -204209.08   -275754.38    1.0250408   0.54269768   0.23015431       73.664    63.794896       36.752   -228060.48   -308813.26 
   88100           10    172711.88       73.664    73.664001       36.752          120   -204217.99   -204209.08   -275754.38    1.0250408   0.54269768   0.23015431       73.664    63.794896       36.752   -228060.48   -308813.26 
   88200           10    172711.88       73.664    73.664001       36.752          120   -204217.99   -204209.08   -275754.38    1.0250408   0.54269768   0.23015431       73.664    63.794896       36.752   -228060.48   -308813.26 
   88300           10    172711.88       73.664    73.664001       36.752          120   -204217.99   -204209.08   -275754.38    1.0250408   0.54269768   0.23015431       73.664    63.794896       36.752   -228060.48   -308813.26 
   88400           10    172711.88       73.664    73.664001       36.752          120   -204217.99   -204209.08   -275754.38    1.0250408   0.54269768   0.23015431       73.664    63.794896       36.752   -228060.48   -308813.26 
   88500           10    172711.88       73.664    73.664001       36.752          120   -204217.99   -204209.08   -275754.38    1.0250408   0.54269768   0.23015431       73.664    63.794896       36.752   -228060.48   -308813.26 
   88600           10    172711.88       73.664    73.664001       36.752          120   -204217.99   -204209.08   -275754.38    1.0250408   0.54269768   0.23015431       73.664    63.794896       36.752   -228060.48   -308813.26 
   88700           10    172711.88       73.664    73.664001       36.752          120   -204217.99   -204209.08   -275754.38    1.0250408   0.54269768   0.23015431       73.664    63.794896       36.752   -228060.48   -308813.26 
   88800           10    172711.88       73.664    73.664001       36.752          120   -204217.99   -204209.08   -275754.38    1.0250408   0.54269768   0.23015431       73.664    63.794896       36.752   -228060.48   -308813.26 
   88900           10    172711.88       73.664    73.664001       36.752          120   -204217.99   -204209.08   -275754.38    1.0250408   0.54269768   0.23015431       73.664    63.794896       36.752   -228060.48   -308813.26 
   89000           10    172711.88       73.664    73.664001       36.752          120   -204217.99   -204209.08   -275754.38    1.0250408   0.54269768   0.23015431       73.664    63.794896       36.752   -228060.48   -308813.26 
   89100           10    172711.88       73.664    73.664001       36.752          120   -204217.99   -204209.08   -275754.38    1.0250408   0.54269768   0.23015431       73.664    63.794896       36.752   -228060.48   -308813.26 
   89200           10    172711.88       73.664    73.664001       36.752          120   -204217.99   -204209.08   -275754.38    1.0250408   0.54269768   0.23015431       73.664    63.794896       36.752   -228060.48   -308813.26 
   89300           10    172711.88       73.664    73.664001       36.752          120   -204217.99   -204209.08   -275754.38    1.0250408   0.54269768   0.23015431       73.664    63.794896       36.752   -228060.48   -308813.26 
   89400           10    172711.88       73.664    73.664001       36.752          120   -204217.99   -204209.08   -275754.38    1.0250408   0.54269768   0.23015431       73.664    63.794896       36.752   -228060.48   -308813.26 
   89500           10    172711.88       73.664    73.664001       36.752          120   -204217.99   -204209.08   -275754.38    1.0250408   0.54269768   0.23015431       73.664    63.794896       36.752   -228060.48   -308813.26 
   89600           10    172711.88       73.664    73.664001       36.752          120   -204217.99   -204209.08   -275754.38    1.0250408   0.54269768   0.23015431       73.664    63.794896       36.752   -228060.48   -308813.26 
   89700           10    172711.88       73.664    73.664001       36.752          120   -204217.99   -204209.08   -275754.38    1.0250408   0.54269768   0.23015431       73.664    63.794896       36.752   -228060.48   -308813.26 
   89800           10    172711.88       73.664    73.664001       36.752          120   -204217.99   -204209.08   -275754.38    1.0250408   0.54269768   0.23015431       73.664    63.794896       36.752   -228060.48   -308813.26 
   89900           10    172711.88       73.664    73.664001       36.752          120   -204217.99   -204209.08   -275754.38    1.0250408   0.54269768   0.23015431       73.664    63.794896       36.752   -228060.48   -308813.26 
   90000           10    172711.88       73.664    73.664001       36.752          120   -204217.99   -204209.08   -275754.38    1.0250408   0.54269768   0.23015431       73.664    63.794896       36.752   -228060.48   -308813.26 
   90100           10    172711.88       73.664    73.664001       36.752          120   -204217.99   -204209.08   -275754.38    1.0250408   0.54269768   0.23015431       73.664    63.794896       36.752   -228060.48   -308813.26 
   90200           10    172711.88       73.664    73.664001       36.752          120   -204217.99   -204209.08   -275754.38    1.0250408   0.54269768   0.23015431       73.664    63.794896       36.752   -228060.48   -308813.26 
   90300           10    172711.88       73.664    73.664001       36.752          120   -204217.99   -204209.08   -275754.38    1.0250408   0.54269768   0.23015431       73.664    63.794896       36.752   -228060.48   -308813.26 
   90400           10    172711.88       73.664    73.664001       36.752          120   -204217.99   -204209.08   -275754.38    1.0250408   0.54269768   0.23015431       73.664    63.794896       36.752   -228060.48   -308813.26 
   90500           10    172711.88       73.664    73.664001       36.752          120   -204217.99   -204209.08   -275754.38    1.0250408   0.54269768   0.23015431       73.664    63.794896       36.752   -228060.48   -308813.26 
   90600           10    172711.88       73.664    73.664001       36.752          120   -204217.99   -204209.08   -275754.38    1.0250408   0.54269768   0.23015431       73.664    63.794896       36.752   -228060.48   -308813.26 
   90700           10    172711.88       73.664    73.664001       36.752          120   -204217.99   -204209.08   -275754.38    1.0250408   0.54269768   0.23015431       73.664    63.794896       36.752   -228060.48   -308813.26 
   90800           10    172711.88       73.664    73.664001       36.752          120   -204217.99   -204209.08   -275754.38    1.0250408   0.54269768   0.23015431       73.664    63.794896       36.752   -228060.48   -308813.26 
   90900           10    172711.88       73.664    73.664001       36.752          120   -204217.99   -204209.08   -275754.38    1.0250408   0.54269768   0.23015431       73.664    63.794896       36.752   -228060.48   -308813.26 
   91000           10    172711.88       73.664    73.664001       36.752          120   -204217.99   -204209.08   -275754.38    1.0250408   0.54269768   0.23015431       73.664    63.794896       36.752   -228060.48   -308813.26 
   91100           10    172711.88       73.664    73.664001       36.752          120   -204217.99   -204209.08   -275754.38    1.0250408   0.54269768   0.23015431       73.664    63.794896       36.752   -228060.48   -308813.26 
   91200           10    172711.88       73.664    73.664001       36.752          120   -204217.99   -204209.08   -275754.38    1.0250408   0.54269768   0.23015431       73.664    63.794896       36.752   -228060.48   -308813.26 
   91300           10    172711.88       73.664    73.664001       36.752          120   -204217.99   -204209.08   -275754.38    1.0250408   0.54269768   0.23015431       73.664    63.794896       36.752   -228060.48   -308813.26 
   91400           10    172711.88       73.664    73.664001       36.752          120   -204217.99   -204209.08   -275754.38    1.0250408   0.54269768   0.23015431       73.664    63.794896       36.752   -228060.48   -308813.26 
   91500           10    172711.88       73.664    73.664001       36.752          120   -204217.99   -204209.08   -275754.38    1.0250408   0.54269768   0.23015431       73.664    63.794896       36.752   -228060.48   -308813.26 
   91600           10    172711.88       73.664    73.664001       36.752          120   -204217.99   -204209.08   -275754.38    1.0250408   0.54269768   0.23015431       73.664    63.794896       36.752   -228060.48   -308813.26 
   91700           10    172711.88       73.664    73.664001       36.752          120   -204217.99   -204209.08   -275754.38    1.0250408   0.54269768   0.23015431       73.664    63.794896       36.752   -228060.48   -308813.26 
   91800           10    172711.88       73.664    73.664001       36.752          120   -204217.99   -204209.08   -275754.38    1.0250408   0.54269768   0.23015431       73.664    63.794896       36.752   -228060.48   -308813.26 
   91900           10    172711.88       73.664    73.664001       36.752          120   -204217.99   -204209.08   -275754.38    1.0250408   0.54269768   0.23015431       73.664    63.794896       36.752   -228060.48   -308813.26 
   92000           10    172711.88       73.664    73.664001       36.752          120   -204217.99   -204209.08   -275754.38    1.0250408   0.54269768   0.23015431       73.664    63.794896       36.752   -228060.48   -308813.26 
   92100           10    172711.88       73.664    73.664001       36.752          120   -204217.99   -204209.08   -275754.38    1.0250408   0.54269768   0.23015431       73.664    63.794896       36.752   -228060.48   -308813.26 
   92200           10    172711.88       73.664    73.664001       36.752          120   -204217.99   -204209.08   -275754.38    1.0250408   0.54269768   0.23015431       73.664    63.794896       36.752   -228060.48   -308813.26 
   92300           10    172711.88       73.664    73.664001       36.752          120   -204217.99   -204209.08   -275754.38    1.0250408   0.54269768   0.23015431       73.664    63.794896       36.752   -228060.48   -308813.26 
   92400           10    172711.88       73.664    73.664001       36.752          120   -204217.99   -204209.08   -275754.38    1.0250408   0.54269768   0.23015431       73.664    63.794896       36.752   -228060.48   -308813.26 
   92500           10    172711.88       73.664    73.664001       36.752          120   -204217.99   -204209.08   -275754.38    1.0250408   0.54269768   0.23015431       73.664    63.794896       36.752   -228060.48   -308813.26 
   92600           10    172711.88       73.664    73.664001       36.752          120   -204217.99   -204209.08   -275754.38    1.0250408   0.54269768   0.23015431       73.664    63.794896       36.752   -228060.48   -308813.26 
   92700           10    172711.88       73.664    73.664001       36.752          120   -204217.99   -204209.08   -275754.38    1.0250408   0.54269768   0.23015431       73.664    63.794896       36.752   -228060.48   -308813.26 
   92800           10    172711.88       73.664    73.664001       36.752          120   -204217.99   -204209.08   -275754.38    1.0250408   0.54269768   0.23015431       73.664    63.794896       36.752   -228060.48   -308813.26 
   92900           10    172711.88       73.664    73.664001       36.752          120   -204217.99   -204209.08   -275754.38    1.0250408   0.54269768   0.23015431       73.664    63.794896       36.752   -228060.48   -308813.26 
   93000           10    172711.88       73.664    73.664001       36.752          120   -204217.99   -204209.08   -275754.38    1.0250408   0.54269768   0.23015431       73.664    63.794896       36.752   -228060.48   -308813.26 
   93100           10    172711.88       73.664    73.664001       36.752          120   -204217.99   -204209.08   -275754.38    1.0250408   0.54269768   0.23015431       73.664    63.794896       36.752   -228060.48   -308813.26 
   93200           10    172711.88       73.664    73.664001       36.752          120   -204217.99   -204209.08   -275754.38    1.0250408   0.54269768   0.23015431       73.664    63.794896       36.752   -228060.48   -308813.26 
   93300           10    172711.88       73.664    73.664001       36.752          120   -204217.99   -204209.08   -275754.38    1.0250408   0.54269768   0.23015431       73.664    63.794896       36.752   -228060.48   -308813.26 
   93400           10    172711.88       73.664    73.664001       36.752          120   -204217.99   -204209.08   -275754.38    1.0250408   0.54269768   0.23015431       73.664    63.794896       36.752   -228060.48   -308813.26 
   93500           10    172711.88       73.664    73.664001       36.752          120   -204217.99   -204209.08   -275754.38    1.0250408   0.54269768   0.23015431       73.664    63.794896       36.752   -228060.48   -308813.26 
   93600           10    172711.88       73.664    73.664001       36.752          120   -204217.99   -204209.08   -275754.38    1.0250408   0.54269768   0.23015431       73.664    63.794896       36.752   -228060.48   -308813.26 
   93700           10    172711.88       73.664    73.664001       36.752          120   -204217.99   -204209.08   -275754.38    1.0250408   0.54269768   0.23015431       73.664    63.794896       36.752   -228060.48   -308813.26 
   93800           10    172711.88       73.664    73.664001       36.752          120   -204217.99   -204209.08   -275754.38    1.0250408   0.54269768   0.23015431       73.664    63.794896       36.752   -228060.48   -308813.26 
   93900           10    172711.88       73.664    73.664001       36.752          120   -204217.99   -204209.08   -275754.38    1.0250408   0.54269768   0.23015431       73.664    63.794896       36.752   -228060.48   -308813.26 
   94000           10    172711.88       73.664    73.664001       36.752          120   -204217.99   -204209.08   -275754.38    1.0250408   0.54269768   0.23015431       73.664    63.794896       36.752   -228060.48   -308813.26 
   94100           10    172711.88       73.664    73.664001       36.752          120   -204217.99   -204209.08   -275754.38    1.0250408   0.54269768   0.23015431       73.664    63.794896       36.752   -228060.48   -308813.26 
   94200           10    172711.88       73.664    73.664001       36.752          120   -204217.99   -204209.08   -275754.38    1.0250408   0.54269768   0.23015431       73.664    63.794896       36.752   -228060.48   -308813.26 
   94300           10    172711.88       73.664    73.664001       36.752          120   -204217.99   -204209.08   -275754.38    1.0250408   0.54269768   0.23015431       73.664    63.794896       36.752   -228060.48   -308813.26 
   94400           10    172711.88       73.664    73.664001       36.752          120   -204217.99   -204209.08   -275754.38    1.0250408   0.54269768   0.23015431       73.664    63.794896       36.752   -228060.48   -308813.26 
   94500           10    172711.88       73.664    73.664001       36.752          120   -204217.99   -204209.08   -275754.38    1.0250408   0.54269768   0.23015431       73.664    63.794896       36.752   -228060.48   -308813.26 
   94600           10    172711.88       73.664    73.664001       36.752          120   -204217.99   -204209.08   -275754.38    1.0250408   0.54269768   0.23015431       73.664    63.794896       36.752   -228060.48   -308813.26 
   94700           10    172711.88       73.664    73.664001       36.752          120   -204217.99   -204209.08   -275754.38    1.0250408   0.54269768   0.23015431       73.664    63.794896       36.752   -228060.48   -308813.26 
   94800           10    172711.88       73.664    73.664001       36.752          120   -204217.99   -204209.08   -275754.38    1.0250408   0.54269768   0.23015431       73.664    63.794896       36.752   -228060.48   -308813.26 
   94900           10    172711.88       73.664    73.664001       36.752          120   -204217.99   -204209.08   -275754.38    1.0250408   0.54269768   0.23015431       73.664    63.794896       36.752   -228060.48   -308813.26 
   95000           10    172711.88       73.664    73.664001       36.752          120   -204217.99   -204209.08   -275754.38    1.0250408   0.54269768   0.23015431       73.664    63.794896       36.752   -228060.48   -308813.26 
   95100           10    172711.88       73.664    73.664001       36.752          120   -204217.99   -204209.08   -275754.38    1.0250408   0.54269768   0.23015431       73.664    63.794896       36.752   -228060.48   -308813.26 
   95200           10    172711.88       73.664    73.664001       36.752          120   -204217.99   -204209.08   -275754.38    1.0250408   0.54269768   0.23015431       73.664    63.794896       36.752   -228060.48   -308813.26 
   95300           10    172711.88       73.664    73.664001       36.752          120   -204217.99   -204209.08   -275754.38    1.0250408   0.54269768   0.23015431       73.664    63.794896       36.752   -228060.48   -308813.26 
   95400           10    172711.88       73.664    73.664001       36.752          120   -204217.99   -204209.08   -275754.38    1.0250408   0.54269768   0.23015431       73.664    63.794896       36.752   -228060.48   -308813.26 
   95500           10    172711.88       73.664    73.664001       36.752          120   -204217.99   -204209.08   -275754.38    1.0250408   0.54269768   0.23015431       73.664    63.794896       36.752   -228060.48   -308813.26 
   95600           10    172711.88       73.664    73.664001       36.752          120   -204217.99   -204209.08   -275754.38    1.0250408   0.54269768   0.23015431       73.664    63.794896       36.752   -228060.48   -308813.26 
   95700           10    172711.88       73.664    73.664001       36.752          120   -204217.99   -204209.08   -275754.38    1.0250408   0.54269768   0.23015431       73.664    63.794896       36.752   -228060.48   -308813.26 
   95800           10    172711.88       73.664    73.664001       36.752          120   -204217.99   -204209.08   -275754.38    1.0250408   0.54269768   0.23015431       73.664    63.794896       36.752   -228060.48   -308813.26 
   95900           10    172711.88       73.664    73.664001       36.752          120   -204217.99   -204209.08   -275754.38    1.0250408   0.54269768   0.23015431       73.664    63.794896       36.752   -228060.48   -308813.26 
   96000           10    172711.88       73.664    73.664001       36.752          120   -204217.99   -204209.08   -275754.38    1.0250408   0.54269768   0.23015431       73.664    63.794896       36.752   -228060.48   -308813.26 
   96100           10    172711.88       73.664    73.664001       36.752          120   -204217.99   -204209.08   -275754.38    1.0250408   0.54269768   0.23015431       73.664    63.794896       36.752   -228060.48   -308813.26 
   96200           10    172711.88       73.664    73.664001       36.752          120   -204217.99   -204209.08   -275754.38    1.0250408   0.54269768   0.23015431       73.664    63.794896       36.752   -228060.48   -308813.26 
   96300           10    172711.88       73.664    73.664001       36.752          120   -204217.99   -204209.08   -275754.38    1.0250408   0.54269768   0.23015431       73.664    63.794896       36.752   -228060.48   -308813.26 
   96400           10    172711.88       73.664    73.664001       36.752          120   -204217.99   -204209.08   -275754.38    1.0250408   0.54269768   0.23015431       73.664    63.794896       36.752   -228060.48   -308813.26 
   96500           10    172711.88       73.664    73.664001       36.752          120   -204217.99   -204209.08   -275754.38    1.0250408   0.54269768   0.23015431       73.664    63.794896       36.752   -228060.48   -308813.26 
   96600           10    172711.88       73.664    73.664001       36.752          120   -204217.99   -204209.08   -275754.38    1.0250408   0.54269768   0.23015431       73.664    63.794896       36.752   -228060.48   -308813.26 
   96700           10    172711.88       73.664    73.664001       36.752          120   -204217.99   -204209.08   -275754.38    1.0250408   0.54269768   0.23015431       73.664    63.794896       36.752   -228060.48   -308813.26 
   96800           10    172711.88       73.664    73.664001       36.752          120   -204217.99   -204209.08   -275754.38    1.0250408   0.54269768   0.23015431       73.664    63.794896       36.752   -228060.48   -308813.26 
   96900           10    172711.88       73.664    73.664001       36.752          120   -204217.99   -204209.08   -275754.38    1.0250408   0.54269768   0.23015431       73.664    63.794896       36.752   -228060.48   -308813.26 
   97000           10    172711.88       73.664    73.664001       36.752          120   -204217.99   -204209.08   -275754.38    1.0250408   0.54269768   0.23015431       73.664    63.794896       36.752   -228060.48   -308813.26 
   97100           10    172711.88       73.664    73.664001       36.752          120   -204217.99   -204209.08   -275754.38    1.0250408   0.54269768   0.23015431       73.664    63.794896       36.752   -228060.48   -308813.26 
   97200           10    172711.88       73.664    73.664001       36.752          120   -204217.99   -204209.08   -275754.38    1.0250408   0.54269768   0.23015431       73.664    63.794896       36.752   -228060.48   -308813.26 
   97300           10    172711.88       73.664    73.664001       36.752          120   -204217.99   -204209.08   -275754.38    1.0250408   0.54269768   0.23015431       73.664    63.794896       36.752   -228060.48   -308813.26 
   97400           10    172711.88       73.664    73.664001       36.752          120   -204217.99   -204209.08   -275754.38    1.0250408   0.54269768   0.23015431       73.664    63.794896       36.752   -228060.48   -308813.26 
   97500           10    172711.88       73.664    73.664001       36.752          120   -204217.99   -204209.08   -275754.38    1.0250408   0.54269768   0.23015431       73.664    63.794896       36.752   -228060.48   -308813.26 
   97600           10    172711.88       73.664    73.664001       36.752          120   -204217.99   -204209.08   -275754.38    1.0250408   0.54269768   0.23015431       73.664    63.794896       36.752   -228060.48   -308813.26 
   97700           10    172711.88       73.664    73.664001       36.752          120   -204217.99   -204209.08   -275754.38    1.0250408   0.54269768   0.23015431       73.664    63.794896       36.752   -228060.48   -308813.26 
   97800           10    172711.88       73.664    73.664001       36.752          120   -204217.99   -204209.08   -275754.38    1.0250408   0.54269768   0.23015431       73.664    63.794896       36.752   -228060.48   -308813.26 
   97900           10    172711.88       73.664    73.664001       36.752          120   -204217.99   -204209.08   -275754.38    1.0250408   0.54269768   0.23015431       73.664    63.794896       36.752   -228060.48   -308813.26 
   98000           10    172711.88       73.664    73.664001       36.752          120   -204217.99   -204209.08   -275754.38    1.0250408   0.54269768   0.23015431       73.664    63.794896       36.752   -228060.48   -308813.26 
   98100           10    172711.88       73.664    73.664001       36.752          120   -204217.99   -204209.08   -275754.38    1.0250408   0.54269768   0.23015431       73.664    63.794896       36.752   -228060.48   -308813.26 
   98200           10    172711.88       73.664    73.664001       36.752          120   -204217.99   -204209.08   -275754.38    1.0250408   0.54269768   0.23015431       73.664    63.794896       36.752   -228060.48   -308813.26 
   98300           10    172711.88       73.664    73.664001       36.752          120   -204217.99   -204209.08   -275754.38    1.0250408   0.54269768   0.23015431       73.664    63.794896       36.752   -228060.48   -308813.26 
   98400           10    172711.88       73.664    73.664001       36.752          120   -204217.99   -204209.08   -275754.38    1.0250408   0.54269768   0.23015431       73.664    63.794896       36.752   -228060.48   -308813.26 
   98500           10    172711.88       73.664    73.664001       36.752          120   -204217.99   -204209.08   -275754.38    1.0250408   0.54269768   0.23015431       73.664    63.794896       36.752   -228060.48   -308813.26 
   98600           10    172711.88       73.664    73.664001       36.752          120   -204217.99   -204209.08   -275754.38    1.0250408   0.54269768   0.23015431       73.664    63.794896       36.752   -228060.48   -308813.26 
   98700           10    172711.88       73.664    73.664001       36.752          120   -204217.99   -204209.08   -275754.38    1.0250408   0.54269768   0.23015431       73.664    63.794896       36.752   -228060.48   -308813.26 
   98800           10    172711.88       73.664    73.664001       36.752          120   -204217.99   -204209.08   -275754.38    1.0250408   0.54269768   0.23015431       73.664    63.794896       36.752   -228060.48   -308813.26 
   98900           10    172711.88       73.664    73.664001       36.752          120   -204217.99   -204209.08   -275754.38    1.0250408   0.54269768   0.23015431       73.664    63.794896       36.752   -228060.48   -308813.26 
   99000           10    172711.88       73.664    73.664001       36.752          120   -204217.99   -204209.08   -275754.38    1.0250408   0.54269768   0.23015431       73.664    63.794896       36.752   -228060.48   -308813.26 
   99100           10    172711.88       73.664    73.664001       36.752          120   -204217.99   -204209.08   -275754.38    1.0250408   0.54269768   0.23015431       73.664    63.794896       36.752   -228060.48   -308813.26 
   99200           10    172711.88       73.664    73.664001       36.752          120   -204217.99   -204209.08   -275754.38    1.0250408   0.54269768   0.23015431       73.664    63.794896       36.752   -228060.48   -308813.26 
   99300           10    172711.88       73.664    73.664001       36.752          120   -204217.99   -204209.08   -275754.38    1.0250408   0.54269768   0.23015431       73.664    63.794896       36.752   -228060.48   -308813.26 
   99400           10    172711.88       73.664    73.664001       36.752          120   -204217.99   -204209.08   -275754.38    1.0250408   0.54269768   0.23015431       73.664    63.794896       36.752   -228060.48   -308813.26 
   99500           10    172711.88       73.664    73.664001       36.752          120   -204217.99   -204209.08   -275754.38    1.0250408   0.54269768   0.23015431       73.664    63.794896       36.752   -228060.48   -308813.26 
   99600           10    172711.88       73.664    73.664001       36.752          120   -204217.99   -204209.08   -275754.38    1.0250408   0.54269768   0.23015431       73.664    63.794896       36.752   -228060.48   -308813.26 
   99700           10    172711.88       73.664    73.664001       36.752          120   -204217.99   -204209.08   -275754.38    1.0250408   0.54269768   0.23015431       73.664    63.794896       36.752   -228060.48   -308813.26 
   99800           10    172711.88       73.664    73.664001       36.752          120   -204217.99   -204209.08   -275754.38    1.0250408   0.54269768   0.23015431       73.664    63.794896       36.752   -228060.48   -308813.26 
   99900           10    172711.88       73.664    73.664001       36.752          120   -204217.99   -204209.08   -275754.38    1.0250408   0.54269768   0.23015431       73.664    63.794896       36.752   -228060.48   -308813.26 
  100000           10    172711.88       73.664    73.664001       36.752          120   -204217.99   -204209.08   -275754.38    1.0250408   0.54269768   0.23015431       73.664    63.794896       36.752   -228060.48   -308813.26 
Loop time of 36499.6 on 1 procs for 100000 steps with 14848 atoms

Performance: 0.118 ns/day, 202.776 hours/ns, 2.740 timesteps/s
100.0% CPU use with 1 MPI tasks x 1 OpenMP threads

MPI task timing breakdown:
Section |  min time  |  avg time  |  max time  |%varavg| %total
---------------------------------------------------------------
Pair    | 34590      | 34590      | 34590      |   0.0 | 94.77
Bond    | 0.039419   | 0.039419   | 0.039419   |   0.0 |  0.00
Kspace  | 1860.5     | 1860.5     | 1860.5     |   0.0 |  5.10
Neigh   | 0          | 0          | 0          |   0.0 |  0.00
Comm    | 36.904     | 36.904     | 36.904     |   0.0 |  0.10
Output  | 0.22863    | 0.22863    | 0.22863    |   0.0 |  0.00
Modify  | 0.093172   | 0.093172   | 0.093172   |   0.0 |  0.00
Other   |            | 11.9       |            |       |  0.03

Nlocal:    14848 ave 14848 max 14848 min
Histogram: 1 0 0 0 0 0 0 0 0 0
Nghost:    46016 ave 46016 max 46016 min
Histogram: 1 0 0 0 0 0 0 0 0 0
Neighs:    9.5447e+06 ave 9.5447e+06 max 9.5447e+06 min
Histogram: 1 0 0 0 0 0 0 0 0 0

Total # of neighbors = 9544704
Ave neighs/atom = 642.828
Ave special neighs/atom = 0
Neighbor list builds = 0
Dangerous builds = 0
variable	probeTemp delete

print		" "
 
print		"All done!"
All done!
Total wall time: 10:08:21
